391

Nd      7.890933120000000      7.890933120000000      7.890933120000000
O       6.880466470000000      6.382566320000000      9.383007770000001
H       6.826042540000000      6.405427610000000     10.345198699999999
O       9.887999300000001      8.975509010000000      8.489198780000001
H      10.026366489999999      9.783848980000000      8.995891020000000
O       6.904333590000000      8.314724030000001      5.800592800000000
H       6.499420350000000      9.119821999999999      5.458308520000000
O       7.789665700000000      8.805904210000000     10.204517530000000
H       8.234073730000000      9.580987570000000     10.547998430000000
H       7.297602430000000      8.461395420000001     10.949782089999999
O       9.545931580000000      6.308561460000000      8.869288890000000
H       9.667351820000000      5.382923100000000      8.657906320000000
H      10.203334040000000      6.489554430000000      9.541074110000000
O       7.808459080000000     10.327318580000000      7.383662070000000
H       8.059923299999999     11.053438330000001      7.954405180000000
H       7.518183560000000     10.747733020000000      6.574203200000000
O       9.564724959999999      7.829975830000000      6.048433430000000
H      10.515707320000001      7.750750490000000      6.123184600000000
H       9.401409250000000      7.880515390000000      5.106623700000000
O       5.440275750000000      8.285590689999999      8.087462710000000
H       4.873618580000000      8.764535049999999      7.482695160000000
H       4.853682550000000      7.992367520000000      8.784714760000000
O       7.196541630000000      5.788247940000000      6.752234070000000
H       6.598596890000000      5.115505030000000      7.077980750000000
H       7.467713950000000      5.471492080000000      5.890629100000000
O       1.367890020000000      0.279255780000000      1.807508030000000
H       1.801411930000000      1.078871750000000      2.105677280000000
H       1.330928910000000      0.367167100000000      0.855070460000000
O       0.479390080000000     12.895899480000001      0.608853290000000
H       0.550901770000000     13.791409930000000      0.939275670000000
H       1.144197320000000     12.407241960000000      1.094113030000000
O       7.902240260000000     12.714777420000001      6.045433550000000
H       7.605535570000000     13.623696819999999      6.000005620000000
H       8.246042630000000     12.530582960000000      5.171303030000000
O       8.884828680000000      3.952294780000000     11.397520620000000
H       8.554419650000000      4.026434280000000     12.292822270000000
H       9.698094709999999      4.457098840000000     11.399272840000000
O      12.439057130000000      6.685729160000000     14.272918420000000
H      13.042101410000001      6.855637360000000     13.549246780000001
H      11.723107620000000      6.188789940000000     13.877065480000001
O       8.284753730000000      8.058419720000000      3.269449680000000
H       8.213556140000000      8.954249689999999      2.939826560000000
H       7.631458110000000      8.006786910000001      3.967139250000000
O      11.249037680000001     13.165406610000000      6.317988220000000
H      10.475709130000000     13.427805490000001      5.818647030000000
H      11.954647000000000     13.712283290000000      5.972628660000000
O       5.162655340000000      6.678477190000000      3.194588760000000
H       4.475528260000000      6.117289640000000      3.553972620000000
H       5.852029910000000      6.071383290000000      2.925457680000000
O       4.061993760000000      9.291892940000000      0.279108190000000
H       3.241831350000000      9.084700280000000     -0.168816650000000
H       4.681867110000000      9.473833510000000     -0.427210780000000
O      10.201295080000000      2.150018530000000      0.740717230000000
H      10.982841510000000      2.669214830000000      0.930064070000000
H      10.157602330000000      2.121913180000000     -0.215071900000000
O      10.077795880000000      6.013713060000000      3.323377870000000
H       9.395831410000000      6.680624810000000      3.403284250000000
H       9.855716420000000      5.538077680000000      2.522950780000000
O      13.207696510000000     11.500419120000000      7.300807600000000
H      13.998047010000001     11.730964159999999      6.812517830000000
H      12.526635499999999     12.065192260000000      6.935541890000000
O       1.684149740000000      4.509653440000000      5.466638250000000
H       2.565421870000000      4.707271900000000      5.783715860000000
H       1.190999350000000      5.317543650000000      5.609284460000000
O       0.745326220000000     10.914319440000000     14.546536140000001
H       0.901959070000000     10.270711720000000     15.237526069999999
H       0.555978150000000     11.727575880000000     15.014503149999999
O      12.610092529999999     11.325166970000000      4.548763850000000
H      12.037050819999999     11.999070600000000      4.914426170000000
H      12.889865680000000     11.680048590000000      3.704952330000000
O       6.800806310000000      6.451843120000000      0.128517450000000
H       6.837792380000000      6.079488480000000      1.009548600000000
H       6.841214650000000      7.398246080000000      0.266069030000000
O       6.524044040000000      7.069313790000000     12.095688370000000
H       6.266664050000000      6.191681900000000     12.378088160000001
H       7.438017510000000      7.150706610000000     12.368194440000000
O      14.040073039999999     14.202754329999999      9.997616100000000
H      13.092724830000000     14.234658030000000     10.130827820000000
H      14.243311620000000     15.010052970000000      9.525181110000000
O      15.294024400000000      3.813630250000000     13.161659009999999
H      14.858565410000001      3.699121760000000     14.006345410000000
H      14.585613120000000      4.022766510000000     12.552850890000000
O       3.198790660000000     11.596109520000001      3.283206780000000
H       4.019695800000000     11.142585520000001      3.474681490000000
H       2.583921960000000     10.896495630000000      3.062506230000000
O      12.118405750000001     14.006895170000000      2.392854650000000
H      11.426899190000000     14.258999610000000      3.004813700000000
H      11.930142880000000     14.507018290000000      1.598709960000000
O      14.318151640000000     11.847112539999999      2.197176980000000
H      13.685923409999999     12.553801600000000      2.066372210000000
H      15.085311799999999     12.114713650000001      1.691126810000000
O       2.483857840000000      3.668184170000000     14.217870370000000
H       2.860631250000000      4.477406610000000     13.872280020000000
H       1.577847830000000      3.674283750000000     13.909097830000000
O       5.568175570000000     13.329087270000000      8.361622880000001
H       6.210029560000000     12.917772899999999      7.782765560000000
H       5.274588860000000     14.103911739999999      7.882367500000000
O       9.979917640000000      7.496879900000000      0.438408450000000
H      10.633526659999999      8.156232240000000      0.205424360000000
H      10.284722900000000      7.141314240000000      1.273213010000000
O       3.618194690000000     15.097449440000000      3.918967280000000
H       3.226899290000000     14.459140200000000      4.515357300000000
H       3.804146660000000     14.599540920000001      3.122888880000000
O       2.546280840000000      9.103638920000000      4.169984280000000
H       3.480498620000000      9.311991980000000      4.162370160000000
H       2.146713260000000      9.811185589999999      4.675904520000000
O       3.080462220000000     12.899765629999999     13.450213820000000
H       2.922963080000000     13.804659310000000     13.719645229999999
H       2.283851550000000     12.432395840000000     13.701627350000001
O       8.386472299999999      4.413261990000000      4.729396030000000
H       9.042366149999999      5.046054260000000      4.436805790000000
H       8.894913420000000      3.709993980000000      5.133294000000000
O      15.003808220000000     12.167546370000000     11.531739490000000
H      15.445601470000000     13.006053090000000     11.665743380000000
H      14.114164160000000     12.310720809999999     11.854642510000000
O      11.300724450000001     12.476981090000001      8.996639900000000
H      11.141632059999999     12.798065720000000      8.109044210000000
H      11.408839260000001     13.269324660000001      9.522695690000001
O       5.900133810000000      4.014116020000000      8.473177600000000
H       6.400948020000000      4.637019650000000      8.999872999999999
H       6.503522850000000      3.286118970000000      8.324268840000000
O       7.267385850000000     15.346183119999999      5.778855320000000
H       7.224953980000000     16.286129209999999      5.602978290000000
H       6.391535460000000     15.120943060000000      6.092518900000000
O      11.858563370000001     14.828285120000000     13.003669720000000
H      12.587596410000000     15.389594689999999     12.739710949999999
H      12.262944530000000     13.980506630000001     13.188004610000000
O       2.481245500000000     11.641034080000001      7.517138220000000
H       3.318526100000000     11.981992050000001      7.831686620000000
H       2.597349230000000     10.690949070000000      7.507638580000000
O      13.938044570000001      0.549696330000000     11.914424900000000
H      14.019769040000000     -0.241274400000000     11.381585090000000
H      14.839932870000000      0.791146840000000     12.125448580000000
O       7.869241300000000      4.586406460000000     14.243946530000001
H       8.516128230000000      4.184560370000000     14.823850710000000
H       7.501826130000000      5.306418100000000     14.756607400000000
O       3.635991650000000      5.832882920000000      8.090258640000000
H       3.936753390000000      6.213213210000000      8.915560460000000
H       3.478613740000000      4.910979700000000      8.294117650000000
O       0.953621530000000     14.252922190000000     11.757326720000000
H       0.785260360000000     15.142206480000000     12.068870960000000
H       1.488406310000000     13.855161799999999     12.444366560000001
O       2.558394800000000      2.804690320000000      3.098250290000000
H       2.320583200000000      3.342000180000000      3.853879560000000
H       3.157993630000000      3.353469540000000      2.592726340000000
O       7.117098210000000      4.967159880000000      2.388400420000000
H       7.513864970000000      4.690973300000000      3.214553520000000
H       6.739592650000000      4.166573620000000      2.024006370000000
O      13.132660800000000      0.429734970000000      4.024786710000000
H      12.680659739999999     -0.017349160000000      3.309215140000000
H      13.319173870000000     -0.261638090000000      4.659962280000000
O      13.625804530000000     13.784470590000000      5.149170210000000
H      14.359684090000000     13.336686470000000      5.570052630000000
H      13.585055570000000     13.405431240000000      4.271160790000000
O       2.714730390000000      1.791111890000000      5.617498630000000
H       2.417665250000000      2.697067390000000      5.702520790000000
H       1.969294210000000      1.329115710000000      5.233941240000000
O       7.341081960000000     12.818367430000000     11.178674380000000
H       7.942054270000000     12.225918999999999     10.726934450000000
H       7.695543560000000     13.691956290000000     11.013050350000000
O       1.268693030000000      6.952798100000000      2.982132700000000
H       1.764902750000000      7.657393830000000      3.398729160000000
H       1.936646930000000      6.366999870000000      2.625888590000000
O      11.477264940000000      3.274667220000000      3.583448490000000
H      10.962004759999999      2.720359270000000      4.169521430000000
H      11.022817750000000      4.117093360000000      3.588719540000000
O       4.446278490000000      7.128335140000000     10.340557770000000
H       3.772771360000000      7.687409080000000     10.727928790000000
H       5.117229220000000      7.055420250000000     11.019336360000000
O       5.409182150000000      4.674151970000000     13.086866750000000
H       6.270346860000000      4.525331520000000     13.477353170000001
H       5.038785570000000      3.797836270000000     12.981467450000000
O       5.775785370000000      9.287302550000000     13.948796870000001
H       5.340424340000000      8.470210890000001     13.705786939999999
H       5.328134750000000      9.959691319999999     13.435246390000000
O       0.813670880000000      1.968864860000000      7.554700850000000
H       0.524274100000000      2.344774160000000      6.723332380000000
H       1.178655200000000      1.116119980000000      7.318386550000000
O       2.401934750000000      8.259640510000001      8.001216670000000
H       1.846453450000000      8.261849460000001      8.780746969999999
H       2.676710780000000      7.347798240000000      7.904916890000000
O      15.071382930000000     10.185667179999999      4.214898920000000
H      15.405769970000000     10.791118030000000      4.876598550000000
H      15.008611840000000     10.712003290000000      3.417865720000000
O       6.686829040000000      2.198195360000000      5.426654410000000
H       5.909116790000000      2.109684390000000      4.875690440000000
H       7.092331760000000      3.016418430000000      5.139756530000000
O       4.661534490000000      0.053857970000000      6.385807800000000
H       4.564665780000000     -0.317731840000000      5.509012890000000
H       4.137462300000000      0.854608380000000      6.366340600000000
O       9.826452260000000      1.738303720000000      5.549482680000000
H       9.893566820000000      0.873841850000000      5.143979120000000
H      10.653948650000000      1.848604710000000      6.017793750000000
O       7.958698450000000     13.094190330000000      2.917281530000000
H       7.936325220000000     12.138115380000000      2.876637260000000
H       7.135879890000000     13.370859980000001      2.513975960000000
O       0.462917600000000      3.635156880000000      9.675749280000000
H       0.585394370000000      3.075753260000000      8.908742840000000
H       0.559577820000000      3.043654850000000     10.422082990000000
O      14.657642539999999      0.986940050000000      9.191401839999999
H      14.633468720000000      1.120553110000000     10.138922290000000
H      15.553807030000000      1.210675070000000      8.940276969999999
O       9.624005159999999     14.525125969999999      4.612458950000000
H       9.382623949999999     13.773071870000001      4.071735750000000
H       8.796680750000000     14.825774490000001      4.988459780000000
O       7.954267500000000      9.193471010000000     15.574800420000001
H       7.257818610000000      9.047462319999999     14.934587759999999
H       8.527287570000000      8.432146700000001     15.483887709999999
O       5.498220760000000     13.192331899999999      1.750053450000000
H       4.818420420000000     12.667223959999999      2.172386230000000
H       5.188862810000000     14.094623850000000      1.830045530000000
O       5.590457460000000     10.171594949999999      4.054751810000000
H       6.345033340000000      9.989389080000000      3.494708860000000
H       5.734255370000000     11.064526150000001      4.368165060000000
O       7.648332970000000      1.732903660000000      7.988542020000000
H       7.914831700000000      0.823442390000000      8.123042800000000
H       7.502055590000000      1.803112230000000      7.045193980000000
O      11.887167460000001     12.749984690000000     15.291840040000000
H      11.466314329999999     12.209493910000001     15.960408800000000
H      11.636104339999999     13.646346650000000     15.514852130000000
O      11.035979260000000      5.544667570000000      5.942712520000000
H      11.975710130000000      5.726057620000000      5.927370170000000
H      10.726059780000000      5.810631470000000      5.077007630000000
O       2.582849560000000     15.513999950000001     14.012823450000001
H       2.257108550000000     15.405228890000000     14.906296160000000
H       1.871221120000000     15.956420489999999     13.550134699999999
O      12.335767940000000      9.198305710000000     15.309509280000000
H      12.356298819999999      9.270788460000000     16.263740160000001
H      12.389131600000001      8.257917129999999     15.139058490000000
O      15.724507120000000     12.089762570000000      6.454193050000000
H      15.800447430000000     12.014780410000000      7.405425190000000
H      16.557163030000002     12.471468800000000      6.176314780000000
O       2.821081040000000     13.764975130000000      1.685692790000000
H       2.424275900000000     14.634603580000000      1.735931100000000
H       3.023354230000000     13.646732170000000      0.757610900000000
O       2.257315050000000     13.178954920000001      5.284853910000000
H       2.725078380000000     12.763493730000000      6.009299420000000
H       2.365479320000000     12.573999140000000      4.550986870000000
O      13.676995270000001      4.754149810000000     10.631275260000001
H      13.880384640000001      5.492378560000000     10.056920920000000
H      14.428900380000000      4.168214880000000     10.544379859999999
O      10.393520730000001     10.617315160000000      3.018280900000000
H      10.875118320000000      9.995687250000000      2.472502250000000
H      11.036752300000000     10.924144090000000      3.657296550000000
O       0.531798940000000      8.630585549999999      9.958514160000000
H       0.406150850000000      9.546000310000000      9.708593740000000
H       0.103726320000000      8.553681720000000     10.811199020000000
O       9.092513960000000      3.983763160000000      7.492182440000000
H       9.137503089999999      3.137654270000000      7.046865060000000
H       9.495107530000000      4.599155580000000      6.879448880000000
O      11.418048490000000     14.850563559999999     10.319660409999999
H      11.351477709999999     14.595055960000000     11.239723469999999
H      11.155450820000000     15.770945700000000     10.306582550000000
O      10.848127379999999      1.636846730000000     11.011210480000001
H      10.136276459999999      2.270895340000000     11.097711720000000
H      11.598992910000000      2.060863160000000     11.426713630000000
O      11.472762430000000      4.400036390000000      9.077266930000000
H      12.344265470000000      4.505733730000000      9.458767090000000
H      11.539596039999999      3.609697250000000      8.541422590000000
O       0.712528120000000      8.945435359999999      0.951041290000000
H       1.434832530000000      8.675643210000000      0.383837290000000
H       0.680983900000000      8.275864980000000      1.634351110000000
O      14.928908560000000      1.717099930000000      2.439041590000000
H      15.538235940000000      0.998358000000000      2.270631290000000
H      14.247590680000000      1.330258770000000      2.988943130000000
O      15.745403140000001      7.356264560000000      5.903547060000000
H      16.157055329999999      7.223309810000000      5.049675090000000
H      16.474700620000000      7.540640670000000      6.495461300000000
O       4.286083100000000      1.647387860000000     14.923429160000000
H       3.687375450000000      2.369210050000000     14.731716550000000
H       3.730626910000000      0.867839670000000     14.921219850000000
O      11.958160740000000      3.668815800000000     12.438491980000000
H      12.534650370000000      4.055180060000000     11.779239219999999
H      11.323290560000000      4.357573810000000     12.635428810000001
O       3.132339810000000     11.181495099999999     11.342310720000000
H       3.119219480000000     11.832088840000001     12.044298950000000
H       4.023220550000000     10.831669979999999     11.355939060000001
O       1.143704730000000     14.300440770000000      9.044312840000000
H       0.722346420000000     13.460479810000001      8.862228770000000
H       1.141380170000000     14.368111740000000      9.999114949999999
O       6.207430470000000     13.122071679999999     14.906946130000000
H       6.267056360000000     12.177078270000001     14.766717610000001
H       5.875023970000000     13.211649970000000     15.800094200000000
O       2.047412770000000      8.530505280000000     14.399597959999999
H       2.779465470000000      8.039625750000001     14.026277779999999
H       1.304582840000000      7.928917170000000     14.349325800000001
O      14.206392040000001      7.022986070000000     12.233040150000001
H      13.951674460000000      6.171472990000000     11.877686430000001
H      13.940642280000000      7.652133930000000     11.562382350000000
O      13.873159749999999      6.761190680000000      8.639949370000000
H      14.568119390000000      7.327774650000000      8.974980040000000
H      13.118595500000000      7.341324030000000      8.538411470000000
O      14.211465720000000      5.937626210000000      0.413841300000000
H      14.168839459999999      5.001289130000000      0.219708050000000
H      13.762798190000000      6.355757290000000     -0.321070720000000
O       0.440631770000000     11.261731060000001      9.275032749999999
H       0.547490770000000     11.581662130000000     10.170832450000001
H       1.248758450000000     11.518037780000000      8.830656800000000
O      14.645304230000001      4.894940620000000      3.158324810000000
H      14.737637380000001      3.947665490000000      3.056460880000000
H      14.388802009999999      5.205803030000000      2.290106510000000
O       8.279803540000000      8.992231260000001     12.881844340000001
H       7.325946700000000      8.981738030000001     12.961083670000001
H       8.476434319999999      9.828970670000000     12.460613600000000
O       0.782914280000000      1.176348880000000     12.573077730000000
H       0.962964090000000      1.249198630000000     11.635790790000000
H       0.404574480000000      2.022726730000000     12.811269630000000
O      10.171462630000001      1.734647150000000     13.647077660000001
H      10.772528940000001      2.370020430000000     13.258166449999999
H       9.696233940000001      1.366674020000000     12.902104300000000
O      12.221098110000000     12.176893659999999     12.516739820000000
H      12.302231530000000     11.943277580000000     13.441441250000000
H      12.111303710000000     11.339428200000000     12.066374830000001
O       7.423545730000000     10.561094420000000      2.083332920000000
H       7.661026610000000     10.052715409999999      1.307842460000000
H       6.619903520000000     11.017534700000001      1.834227900000000
O       5.200523590000000      2.005358700000000     10.168417860000000
H       5.956529510000000      1.621553030000000     10.612692650000000
H       4.528989040000000      2.067418210000000     10.847698220000000
O       8.798738320000000     15.436604000000001      9.313756730000000
H       9.600381670000001     14.948312209999999      9.501295799999999
H       8.190448399999999     14.778917610000001      8.976616050000001
O       3.300123070000000      3.139980940000000      8.274303130000000
H       3.069293580000000      2.527574420000000      7.575799130000000
H       3.947530020000000      2.670799550000000      8.800577690000001
O      12.775815300000000      9.606732210000001      2.180557080000000
H      13.437232520000000      8.915688919999999      2.215461000000000
H      13.272278180000001     10.405284410000000      2.001473750000000
O       9.084023320000000     11.176993870000000      9.887850700000000
H       9.616527160000000     11.832117370000001      9.436757910000001
H       9.524841309999999     11.046092850000001     10.727360230000000
O      14.270369560000001      3.222011150000000      0.271108340000000
H      14.434974759999999      2.690106160000000      1.049705830000000
H      13.769904349999999      2.648884870000000     -0.309660690000000
O       2.362606330000000      1.038429920000000      9.724456620000000
H       2.174175700000000      0.138157930000000      9.459435729999999
H       1.886671750000000      1.578845730000000      9.093846700000000
O      10.371830360000001     10.591009170000000      6.355082800000000
H      10.670850659999999     11.482888600000001      6.532197960000000
H       9.489879309999999     10.555595719999999      6.725407080000000
O       0.140538860000000      2.328911390000000      4.896083620000000
H       0.588950120000000      3.174569360000000      4.891415050000000
H       0.407414560000000      1.911238030000000      4.077207460000000
O       1.757579220000000      5.941532430000000     11.501471450000000
H       2.613879570000000      6.165465700000000     11.137005479999999
H       1.442389930000000      5.224798560000000     10.950853499999999
O      10.187230019999999      5.578266530000000     13.223509650000000
H      10.123045169999999      6.397370200000000     12.732407510000000
H       9.288891870000000      5.390472180000000     13.495453930000000
O      14.180334350000001      4.409413840000000      6.346504190000000
H      14.788741220000000      4.765563320000000      6.993984280000000
H      14.684633610000001      3.737847700000000      5.887251520000000
O       3.204886500000000      2.272856920000000     11.997154370000001
H       3.468185360000000      1.417736720000000     12.337264640000001
H       2.989280180000000      2.785076870000000     12.776497989999999
O       1.256148060000000      4.737486700000000      0.614930640000000
H       1.802311720000000      4.368632700000000     -0.079247890000000
H       0.439596510000000      4.240258410000000      0.567607960000000
O      10.937672740000000     15.537516099999999     15.462796020000001
H      10.757276850000000     16.201254870000000     14.797108400000001
H      10.671038780000000     15.945298460000000     16.286720599999999
O      11.726887059999999      8.752370300000001      4.546027710000000
H      12.171652770000000      9.247790520000001      3.858296580000000
H      11.132747560000000      9.384227980000000      4.950979500000000
O      15.535149920000000     14.331154590000001     14.197273969999999
H      14.584348510000000     14.440034349999999     14.178466329999999
H      15.688657970000000     13.680143090000000     14.882001040000000
O       5.688336190000000      3.355893180000000      0.726815210000000
H       5.093314320000000      2.723684410000000      0.323711150000000
H       6.364027230000000      3.505011550000000      0.065424870000000
O       7.369073740000000      0.356588150000000      1.431890560000000
H       7.537087940000000     -0.435727250000000      1.942027180000000
H       8.237962080000001      0.717830130000000      1.256479230000000
O       5.313066190000000     14.484362669999999     11.892671880000000
H       4.544500770000000     14.094854870000001     12.309592390000001
H       5.816752630000000     13.736457240000000     11.571472119999999
O      11.587865380000000      9.570257540000000     11.680214740000000
H      10.930890030000000      9.794219110000000     12.339347840000000
H      11.078940850000000      9.284819160000000     10.921431110000000
O      11.409820990000000      1.778819460000000      8.353611100000000
H      10.544460219999999      1.897216920000000      7.961993160000000
H      11.250529700000000      1.795793750000000      9.297311260000001
O       4.183884590000000      7.095149190000000     13.491615850000001
H       3.801118790000000      7.017275290000000     12.617740670000000
H       4.721594690000000      6.309263290000000     13.588996720000001
O       7.676259920000000     15.104323810000000     13.761691230000000
H       7.353283140000000     14.470511860000000     14.402160009999999
H       7.065145600000000     15.036832270000000     13.028059160000000
O       9.934634040000001     10.885018799999999     13.921854370000000
H      10.575788449999999     11.371733310000000     14.439794370000000
H       9.423143300000000     10.398725770000000     14.568482660000001
