391

Nd     20.310049849999999     20.864900370000001     20.378185030000001
O      22.526061640000002     20.827152869999999     19.596925230000000
H      23.330694630000000     21.174329700000001     19.998584290000000
O      18.620597879999998     19.761407240000000     19.173795170000002
H      17.676274440000000     19.690669860000000     19.354198770000000
O      19.783490029999999     22.006141010000000     22.363834690000001
H      20.251298810000002     22.721031210000000     22.810357870000001
O      20.440173000000001     21.355871059999998     17.940539489999999
H      21.045593260000000     20.983532409999999     17.299398270000001
H      19.895987139999999     21.959254710000000     17.434553560000001
O      21.009171309999999     18.576664489999999     19.688760840000000
H      20.464971850000001     17.791702720000000     19.626200369999999
H      21.882369059999998     18.284809500000001     19.426886440000001
O      18.280624710000001     22.284226690000001     20.119251819999999
H      17.850234740000001     22.818457490000000     20.786779920000001
H      17.755991210000001     22.417914079999999     19.329872819999999
O      18.849623019999999     19.505020120000001     21.867473170000000
H      18.707755630000001     19.614371500000001     22.807764479999999
H      18.304230820000001     18.755725170000002     21.628023240000001
O      21.355854380000000     23.123413230000001     20.452431749999999
H      22.281837490000001     23.343885889999999     20.351541090000001
H      20.922014510000000     23.965770010000000     20.588262029999999
O      21.924852690000002     20.344206650000000     22.200653089999999
H      21.773058230000000     20.377537579999998     23.145152599999999
H      22.836554270000001     20.065843409999999     22.113785499999999
O      18.706045029999999     23.312576539999998     24.492384479999998
H      17.766526150000001     23.479907619999999     24.417977340000000
H      19.084000840000002     24.162427590000000     24.718513750000000
O      16.951116129999999     20.217290020000000     23.680410599999998
H      16.513481079999998     19.369195130000001     23.606637610000000
H      17.606234189999999     20.090400630000001     24.366669490000000
O      16.093673939999999     20.416956960000000     19.937542489999998
H      15.223235850000000     20.789595930000001     20.077933219999998
H      16.695677650000000     21.077719080000001     20.279911880000000
O      16.665943179999999     24.446662580000002     19.780025330000001
H      16.260279929999999     24.512153059999999     18.915513820000001
H      16.098313970000000     24.964044950000002     20.351290939999998
O      22.353578729999999     17.989149479999998     23.492268249999999
H      22.307529670000001     18.551000400000000     24.265853969999998
H      21.830999490000000     18.445470400000001     22.832788160000000
O      19.743842109999999     17.266786600000000     23.235623980000000
H      19.813404020000000     17.885292360000001     22.508407630000001
H      18.960770369999999     17.543186729999999     23.711684320000000
O      18.548184849999998     24.737444549999999     16.992214780000001
H      18.817517840000001     25.026256419999999     16.120274819999999
H      18.793575409999999     25.459545920000000     17.570647940000001
O      18.143526420000001     16.642187419999999     19.720974810000001
H      18.347420540000002     17.514493089999998     19.383718460000001
H      17.832619160000000     16.156209969999999     18.957172199999999
O      19.957275490000001     22.388932329999999     15.471127740000000
H      19.406921390000001     22.093923329999999     14.745654170000000
H      19.457420270000000     23.095732569999999     15.879551570000000
O      20.003786880000000     19.676502800000002     25.098706360000001
H      19.217797869999998     19.445550699999998     25.593796489999999
H      20.120518310000001     18.953256490000001     24.482654109999999
O      21.468231920000001     24.389050160000000     23.680697550000001
H      20.786904929999999     24.997678199999999     23.966349930000000
H      21.803808740000001     24.768472240000001     22.868503650000001
O      16.978022950000000     18.623544500000001     17.328457810000000
H      16.414093340000001     18.162358019999999     17.949362189999999
H      17.707080139999999     18.022736970000000     17.174387169999999
O      26.599709959999998     17.288563069999999     16.926693640000000
H      27.541402529999999     17.246493860000001     17.093058119999998
H      26.296496319999999     18.030587680000000     17.449850210000001
O      19.693373179999998     17.097592980000002     16.857914999999998
H      19.731315870000000     18.032720650000002     17.058734399999999
H      19.533124550000000     17.060948780000000     15.914935979999999
O      16.291104250000000     21.875610030000001     17.129664389999999
H      15.552433590000000     21.692984379999999     17.710392700000000
H      16.708680850000000     21.024483210000000     16.997585810000000
O      23.709397450000001     16.950050279999999     18.711429190000000
H      23.692271760000001     16.639360940000000     19.616642259999999
H      24.206525419999998     17.767235440000000     18.747540709999999
O      23.741818940000002     25.138080989999999     20.189369530000000
H      24.366889470000000     25.801974349999998     19.898226460000000
H      23.003221199999999     25.639154590000000     20.535245900000000
O      24.321410889999999     19.820176010000001     24.206765229999998
H      23.972073660000000     19.222738090000000     23.545506379999999
H      24.858729490000002     19.265030740000000     24.771861940000001
O      25.637514140000000     19.860369800000001     18.808327840000000
H      26.161578200000001     20.095145550000002     19.574140509999999
H      24.766738289999999     20.210198729999998     18.997010060000001
O      16.141775460000002     27.645485250000000     19.070802369999999
H      16.214694930000000     28.097586669999998     19.911349160000000
H      16.268612359999999     26.720941040000000     19.283786490000001
O      21.603140790000001     24.497599820000001     15.964127580000000
H      20.734067400000001     24.774119660000000     16.254782110000001
H      22.201586490000000     25.130465839999999     16.361084989999998
O      21.625946970000001     26.615254430000000     21.213440330000001
H      21.077358220000001     25.840447770000001     21.091142139999999
H      21.013839080000000     27.350400740000001     21.180038369999998
O      20.053148660000002     22.121221519999999     26.533066470000001
H      20.162425729999999     21.283619909999999     26.082828859999999
H      19.923886430000000     22.756944000000001     25.829234079999999
O      22.626601310000002     17.006769899999998     16.216888070000000
H      23.153752440000002     17.188149710000001     16.994991469999999
H      21.722689899999999     17.017089100000000     16.531641189999998
O      23.681342019999999     15.798809200000001     21.175624169999999
H      24.140818220000000     15.199578270000000     21.763872200000002
H      23.022301599999999     16.219154020000001     21.728080330000001
O      14.826366139999999     18.267463769999999     21.480963610000000
H      14.012412019999999     18.049099340000001     21.027061090000000
H      15.197810730000000     18.989248650000000     20.973728619999999
O      19.412115929999999     26.977323160000001     19.019893069999998
H      18.463132800000000     27.037672780000001     18.910253749999999
H      19.606079630000000     27.557885590000001     19.755798760000001
O      22.023688199999999     14.762177840000000     19.201330469999998
H      22.570021839999999     15.065279810000000     19.926506710000002
H      22.594927230000000     14.183827490000001     18.695930950000001
O      15.771105470000000     21.545422299999998     26.756934260000001
H      16.565694300000001     21.127410179999998     27.088787090000000
H      15.288020169999999     20.837833079999999     26.330111200000001
O      20.869216869999999     17.174740079999999     25.734469010000002
H      20.134256510000000     17.588012620000001     26.187537330000001
H      20.560337000000001     17.053954739999998     24.836562570000002
O      24.615340610000001     22.923894109999999     15.921509159999999
H      23.766763050000002     23.027125370000000     15.490822180000000
H      25.223152840000001     22.724348880000001     15.209485400000000
O      14.073382010000000     20.583837559999999     18.030459570000001
H      13.191793010000000     20.211037739999998     18.023181420000000
H      14.547745330000000     20.091340840000001     17.360639989999999
O      13.382031350000000     24.776825729999999     20.773994720000001
H      14.071152560000000     25.287187289999999     21.199288580000001
H      13.460343780000001     23.902653690000001     21.155992439999999
O      18.711769499999999     14.272400559999999     20.929149890000001
H      18.909895290000001     14.449358889999999     21.848749680000001
H      18.624543400000000     15.138687500000000     20.531443500000002
O      24.985174829999998     19.931331990000000     15.465737409999999
H      24.129593799999999     19.539476799999999     15.640844359999999
H      24.849371930000000     20.870421149999999     15.591836460000000
O      15.469203170000000     24.462875530000002     16.959558980000001
H      16.320606439999999     24.856573130000001     16.768911370000001
H      15.662368610000000     23.539115290000002     17.119515109999998
O      23.456114599999999     26.270502659999998     17.272790659999998
H      23.483130070000001     25.941978819999999     18.171441919999999
H      23.670265610000001     27.200189150000000     17.350599519999999
O      13.340053250000000     21.372838860000002     20.528565830000002
H      12.761029700000000     21.351803980000000     21.290485189999998
H      13.159666750000000     20.553698669999999     20.067369650000000
O      22.835819659999999     22.367686660000000     26.770253279999999
H      21.886351250000001     22.271577730000001     26.696059949999999
H      23.072352960000000     21.834974299999999     27.529530160000000
O      26.624368940000000     24.129214510000001     20.112417539999999
H      25.720945400000002     24.441204599999999     20.164570550000001
H      26.651144190000000     23.604168649999998     19.312516429999999
O      26.643969200000001     22.020216690000002     17.496642850000001
H      26.317870350000000     21.229661990000000     17.926659879999999
H      25.892711540000001     22.353943510000001     17.006265270000000
O      19.415859220000002     25.766216709999998     25.427374940000000
H      19.439020050000000     26.720125310000000     25.351521129999998
H      20.147628590000000     25.553699000000002     26.006669030000001
O      22.224258500000001     15.258207660000000     24.233659840000001
H      22.206759040000001     16.182959170000000     23.987163890000001
H      21.336938369999999     14.945836090000000     24.056688569999999
O      19.170037399999998     14.632816240000000     23.598044170000001
H      19.378590590000002     15.560495720000000     23.487825369999999
H      19.487753489999999     14.417963220000001     24.475042739999999
O      15.973064850000000     15.204031000000001     20.872649089999999
H      16.709564770000000     15.639223390000000     20.443222389999999
H      15.375824489999999     15.915335450000001     21.104126449999999
O      16.809669730000000     15.158598450000000     17.872139570000002
H      16.001786910000000     15.652806590000001     18.011119799999999
H      16.943101830000000     15.178399830000000     16.924492149999999
O      18.908175990000000     25.096575160000000     21.798041560000001
H      19.296831730000001     24.230032890000000     21.917553320000000
H      18.133016940000001     24.939636119999999     21.258847329999998
O      16.628077340000001     25.376230809999999     24.650177100000001
H      17.543370110000001     25.493753829999999     24.904459060000001
H      16.236774409999999     24.893633149999999     25.378334620000000
O      20.236110300000000     14.387986300000000     17.164084480000000
H      20.143094940000001     15.329976430000000     17.021836180000001
H      21.059049980000001     14.160072740000000     16.731583000000001
O      16.644165439999998     21.602686510000002     14.185993229999999
H      15.783623049999999     21.739218820000001     13.789688340000000
H      16.499402320000002     21.729457510000000     15.123652330000001
O      19.077239389999999     20.836333329999999     13.240013550000000
H      18.884955519999998     20.277091309999999     12.487346880000000
H      18.219955280000001     21.139568690000001     13.538918389999999
O      21.186208400000002     18.589991879999999     13.554016780000000
H      21.584656519999999     18.663139460000000     14.421265520000000
H      20.535869699999999     19.291883559999999     13.528728539999999
O      25.882587149999999     17.442457810000001     23.561741300000001
H      26.234921499999999     18.322998940000002     23.691123189999999
H      25.036728759999999     17.582567699999998     23.136153879999998
O      27.565772219999999     20.935125209999999     21.200053350000001
H      28.219627050000000     21.604450369999999     21.401819390000000
H      28.023598960000001     20.316118029999998     20.631320880000001
O      13.932844930000000     22.457201919999999     23.710858999999999
H      14.138917350000000     23.247040259999999     23.210937600000001
H      13.087763120000000     22.168672560000001     23.366157120000000
O      21.638853789999999     21.748424880000002     13.171850989999999
H      21.198763270000001     20.975624530000001     12.817828690000001
H      21.207628820000000     21.906528399999999     14.011660579999999
O      26.305932570000000     16.509429330000000     20.825026009999998
H      26.136618139999999     16.877990050000001     21.692048190000001
H      27.259207239999999     16.437491739999999     20.776815910000000
O      14.628037600000001     18.808908349999999     15.971575169999999
H      15.512260140000000     18.813282439999998     16.338131050000001
H      14.656442560000000     18.143255249999999     15.284311799999999
O      21.689825769999999     24.827733490000000     26.587859750000000
H      21.841907899999999     24.675704780000000     25.655127130000000
H      22.536412490000000     25.121571800000002     26.924284790000002
O      24.648634930000000     26.251142980000001     23.330740200000001
H      25.105623630000000     26.744922050000000     22.649876480000000
H      24.196534990000000     26.917647620000000     23.848049629999998
O      15.767567540000000     26.584314750000001     22.291350090000002
H      15.805354860000000     27.517228830000001     22.502241699999999
H      16.049102829999999     26.145240999999999     23.093960809999999
O      19.175438329999999     16.835730229999999     14.081328259999999
H      18.754208080000002     16.743355950000002     13.226773460000000
H      19.889669540000000     17.455042370000001     13.931134800000001
O      14.248143060000000     17.816276569999999     24.112804229999998
H      15.085064320000001     17.620656749999998     24.534144390000002
H      14.476894250000001     18.012338289999999     23.204253439999999
O      18.491376500000001     20.080475209999999     28.005981949999999
H      18.960062420000000     20.777589660000000     27.547073690000001
H      17.940417719999999     20.538986789999999     28.640366220000001
O      16.452158350000001     14.695921670000001     23.511145519999999
H      16.356703710000001     14.766272949999999     22.561318719999999
H      17.390656130000000     14.567874950000000     23.649195460000001
O      19.746508949999999     28.767004409999998     21.040690880000000
H      19.067488470000001     29.313973499999999     21.435643830000000
H      20.147808510000001     29.325784400000000     20.375141920000001
O      17.851962910000001     16.371299019999999     26.551872150000001
H      17.152743680000000     16.188947450000001     25.924120439999999
H      18.659162479999999     16.276664889999999     26.046199260000002
O      24.821588200000001     22.601493349999998     22.082687450000002
H      24.551887050000001     21.812356749999999     21.612840070000001
H      25.415571010000001     23.048573470000001     21.479748300000001
O      19.745423180000000     23.770151080000002     12.838860120000000
H      20.669458819999999     23.811151550000002     13.085251960000001
H      19.548460630000001     22.834202179999998     12.800949010000000
O      24.379142200000000     14.122242079999999     18.001029930000001
H      25.285227559999999     13.992320510000001     17.721098600000001
H      24.341791810000000     15.038485420000001     18.275502039999999
O      17.411711550000000     15.106322900000000     15.220107530000000
H      16.707487380000000     15.352816130000001     14.620489940000001
H      18.063203470000001     15.800928740000000     15.123604419999999
O      23.585324079999999     28.491570339999999     19.865107120000001
H      24.437643640000001     28.219015250000002     20.204955519999999
H      22.950916610000000     27.994899860000000     20.381902459999999
O      25.656782119999999     23.648397050000000     25.230276660000001
H      26.233894840000001     24.058487310000000     24.586072710000000
H      26.242713169999998     23.129893039999999     25.781702299999999
O      22.185976830000001     24.892568220000001     13.336828179999999
H      22.000594110000002     24.781094800000002     14.269265180000000
H      22.868786969999999     25.562696809999998     13.306334939999999
O      27.129435529999999     19.391529299999998     24.991737610000001
H      26.745719179999998     20.135492469999999     24.527504459999999
H      27.336331160000000     19.732453970000002     25.861907939999998
O      18.277893809999998     23.249274669999998     28.258014870000000
H      18.895574790000001     22.841134960000002     27.651282609999999
H      17.975024370000000     22.529956570000000     28.812165950000001
O      24.832267139999999     15.585274630000001     25.250881499999998
H      25.212568040000001     16.279331240000001     24.712468569999999
H      23.937480930000000     15.491153430000001     24.924184879999999
O      12.867466600000000     23.229776810000001     16.799300410000001
H      13.158315920000000     22.357199030000000     17.064341039999999
H      13.663497010000000     23.761262360000000     16.808815259999999
O      24.932053880000002     13.985722950000000     22.771505760000000
H      24.984810950000000     14.486268400000000     23.585694180000001
H      25.228611980000000     13.107450820000000     23.010091610000000
O      27.528215230000001     24.985835250000001     22.880323950000001
H      26.925555859999999     25.611063640000001     23.282968940000000
H      27.216149640000001     24.897600050000001     21.979734449999999
O      16.813358250000000     12.967092510000001     19.483254140000000
H      16.718356249999999     13.784392159999999     18.994145010000000
H      17.589064100000002     13.101960010000001     20.027609760000001
O      17.127794110000000     27.338133800000001     15.398094580000000
H      16.200241970000000     27.339555380000000     15.161711759999999
H      17.559189170000000     26.883842090000002     14.674389410000000
O      27.632015230000000     20.558414190000001     15.425991730000000
H      26.807763080000001     20.078346730000000     15.346145290000001
H      27.516059569999999     21.106978110000000     16.201790509999999
O      29.015299620000000     21.859686480000001     19.089742770000001
H      28.166480369999999     22.078955929999999     18.705479029999999
H      29.132535200000000     22.498349950000001     19.793018409999998
O      20.455770800000000     12.259905099999999     22.522479680000000
H      20.826508350000001     12.385013730000001     21.648904640000001
H      20.046038270000000     13.099280550000000     22.731764080000001
O      20.091895969999999     14.284277039999999     14.409098459999999
H      20.971366560000000     14.311860019999999     14.785930660000000
H      19.768203549999999     15.181509710000000     14.489277010000000
O      22.418352100000000     13.624423470000000     15.654336060000000
H      23.015604620000001     13.768068200000000     16.388425600000001
H      22.156237590000000     12.707275360000001     15.734130530000000
O      11.704416000000000     21.232369070000001     22.745307629999999
H      12.225600740000001     20.462980559999998     22.974740929999999
H      11.000000000000000     21.246980879999999     23.393240060000000
O      26.236358379999999     22.271013510000000     13.837160940000000
H      26.866270910000001     21.803400079999999     14.385594830000000
H      26.748640859999998     22.572324230000000     13.086820790000001
O      18.259403259999999     25.996990940000000     13.319826900000001
H      17.429967890000000     25.832820049999999     12.871143590000001
H      18.776080560000000     25.206016190000000     13.166088980000000
O      29.051573659999999     18.814785189999998     19.951866540000001
H      29.692973519999999     19.222269820000001     20.533926959999999
H      29.238615889999998     19.187401439999999     19.090237750000000
O      14.426047410000001     18.366527739999999     26.777291859999998
H      15.331535920000000     18.580309110000002     26.552303160000001
H      13.959866840000000     18.386966950000001     25.941534860000001
O      22.189253640000000     14.957603779999999     26.936771380000000
H      21.760914560000000     15.682127599999999     26.480895619999998
H      22.153035070000001     14.229114660000000     26.316913610000000
O      12.158680490000000     18.716324050000001     17.108285949999999
H      13.029239450000000     18.676797100000002     16.712310490000000
H      11.687619919999999     19.367053880000000     16.587820330000000
O      14.445829670000000     24.344679599999999     14.442192020000000
H      14.834192800000000     24.392508039999999     15.315758480000000
H      13.546204670000000     24.055620019999999     14.595003170000000
O      20.554983020000002     29.465151450000000     17.570351450000000
H      20.310302270000001     28.646603450000001     18.002025339999999
H      20.284795769999999     29.346356510000000     16.659792029999998
O      13.020708030000000     16.071647370000001     17.968300989999999
H      12.739855629999999     16.944944499999998     17.694977210000001
H      13.571030589999999     16.225905449999999     18.736142999999998
O      26.203176419999998     20.582131170000000     27.255122520000000
H      25.668405180000001     20.772221330000001     28.025912559999998
H      25.571133650000000     20.339742000000001     26.578364610000001
O      15.971389550000000     18.722784850000000     12.666685840000000
H      16.645125350000001     18.522933840000000     12.016784710000000
H      16.245582819999999     19.556884910000001     13.047903590000001
O      22.508034270000000     27.412173670000001     26.357545859999998
H      22.185223959999998     28.225196879999999     25.968934730000001
H      21.826808110000002     26.767598220000000     26.166011930000000
O      23.054557500000001     17.827697770000000     28.622285819999998
H      22.611963679999999     18.528591380000002     28.143651609999999
H      22.812185339999999     17.028034949999999     28.155352250000000
O      26.860776959999999     27.033508680000001     18.485463650000000
H      27.057478540000002     27.205138949999998     17.564549230000001
H      26.866809629999999     26.079104739999998     18.558323609999999
O      26.055103689999999     28.031080100000000     20.907478449999999
H      26.346579330000001     28.942692240000000     20.892080369999999
H      26.344717930000002     27.672322550000001     20.068640890000001
O      13.309325980000001     14.972119140000000     21.371769459999999
H      14.095264820000001     14.447651210000000     21.218585330000000
H      13.147151870000000     14.892541059999999     22.311768780000001
O      28.353993400000000     16.802889250000000     22.621692150000001
H      28.900065130000002     16.342663989999998     23.259054060000000
H      27.527474260000002     16.955624879999998     23.079698449999999
O      29.107341460000001     19.934724299999999     23.205336939999999
H      28.972328860000001     20.870546439999998     23.354468969999999
H      28.355201579999999     19.514312080000000     23.622195439999999
O      26.826453340000000     14.260448230000000     19.185962889999999
H      26.499054630000000     14.964031830000000     19.746330660000002
H      27.070278009999999     13.562856540000000     19.794360130000001
O      23.819610969999999     28.965001350000001     17.195657550000000
H      22.948611710000002     29.249657039999999     16.918956860000002
H      23.791757929999999     29.002135830000000     18.151731330000000
O      20.918067910000001     11.836430950000000     17.814391420000000
H      21.217195050000001     11.853693070000000     18.723488130000000
H      20.402171129999999     12.636713670000001     17.716259290000000
O      21.677554330000000     12.682458020000000     24.915638220000002
H      21.239933590000000     12.403134350000000     24.111462730000000
H      22.611130370000001     12.591644120000000     24.724796779999998
O      28.904155540000001     22.809587600000000     23.945661760000000
H      29.520992339999999     23.124150900000000     24.606565780000000
H      28.401545620000000     23.585599819999999     23.697830870000001
O      13.066877760000001     20.165874680000002     14.205280180000001
H      12.525577029999999     20.792539590000001     14.685401470000000
H      13.617323460000000     19.761142599999999     14.875678060000000
O      29.478592559999999     23.320914899999998     21.336645340000000
H      28.818462289999999     23.856236729999999     21.776975230000001
H      30.301582400000001     23.552673739999999     21.767002640000001
O      15.626189800000001     16.140236569999999     13.447684210000000
H      15.736676240000000     17.058598719999999     13.201441350000000
H      15.519911880000000     15.679700220000001     12.615312230000001
O      16.840119150000000     28.592011729999999     24.921779619999999
H      16.777308139999999     27.641160070000002     24.831404039999999
H      16.102307730000000     28.828932110000000     25.483682529999999
O      25.009162079999999     12.464605290000000     20.119129860000001
H      24.941992339999999     13.235084980000000     19.555143070000000
H      25.062876469999999     12.820412040000001     21.006118120000000
O      29.427381300000000     19.748506890000002     17.424945009999998
H      29.180421209999999     19.892891769999999     16.511492459999999
H      29.442034809999999     20.624324090000002     17.810900130000000
O      18.258242480000000     17.674831500000000     29.284797690000001
H      18.230511870000001     18.576513280000000     28.964746399999999
H      18.107105950000001     17.139034899999999     28.506137570000000
O      22.470116950000001     15.527961280000000     12.578869120000000
H      21.800948859999998     15.105889810000001     13.117665540000001
H      22.166233750000000     16.430469779999999     12.482094890000001
O      26.609023239999999     26.652333970000001     15.803416520000001
H      25.750131450000001     26.581295229999998     16.219938100000000
H      27.007527809999999     25.790809549999999     15.926711299999999
O      28.756409000000001     16.137253990000001     19.574898980000000
H      29.664750089999998     15.836816900000001     19.545135590000001
H      28.820892019999999     17.085897540000001     19.685122400000001
O      19.603356699999999     28.807745080000000     14.821535900000001
H      18.808814170000002     28.330694550000000     15.061028710000000
H      20.145704190000000     28.160034509999999     14.371466939999999
