391

Nd      0.000000000000000      0.000000000000000      0.000000000000000
O       2.216011790000000     -0.037747500000000     -0.781259800000000
H       3.020644780000000      0.309429330000000     -0.379600740000000
O      -1.689451970000000     -1.103493140000000     -1.204389860000000
H      -2.633775410000000     -1.174230520000000     -1.023986260000000
O      -0.526559820000000      1.141240630000000      1.985649660000000
H      -0.058751040000000      1.856130830000000      2.432172840000000
O       0.130123150000000      0.490970690000000     -2.437645530000000
H       0.735543410000000      0.118632040000000     -3.078786760000000
H      -0.414062710000000      1.094354340000000     -2.943631470000000
O       0.699121460000000     -2.288235890000000     -0.689424190000000
H       0.154922000000000     -3.073197660000000     -0.751984660000000
H       1.572319200000000     -2.580090870000000     -0.951298590000000
O      -2.029425140000000      1.419326320000000     -0.258933200000000
H      -2.459815110000000      1.953557120000000      0.408594900000000
H      -2.554058640000000      1.553013700000000     -1.048312210000000
O      -1.460426830000000     -1.359880260000000      1.489288140000000
H      -1.602294220000000     -1.250528870000000      2.429579460000000
H      -2.005819030000000     -2.109175200000000      1.249838210000000
O       1.045804530000000      2.258512860000000      0.074246720000000
H       1.971787640000000      2.478985520000000     -0.026643930000000
H       0.611964660000000      3.100869630000000      0.210077000000000
O       1.614802840000000     -0.520693720000000      1.822468060000000
H       1.463008380000000     -0.487362790000000      2.766967580000000
H       2.526504420000000     -0.799056960000000      1.735600470000000
O      -1.604004820000000      2.447676170000000      4.114199450000000
H      -2.543523700000000      2.615007250000000      4.039792310000000
H      -1.226049020000000      3.297527220000000      4.340328720000000
O      -3.358933720000000     -0.647610350000000      3.302225580000000
H      -3.796568770000000     -1.495705250000000      3.228452580000000
H      -2.703815660000000     -0.774499740000000      3.988484460000000
O      -4.216375910000000     -0.447943410000000     -0.440642540000000
H      -5.086814010000000     -0.075304440000000     -0.300251810000000
H      -3.614372200000000      0.212818710000000     -0.098273150000000
O      -3.644106670000000      3.581762200000000     -0.598159690000000
H      -4.049769920000000      3.647252690000000     -1.462671210000000
H      -4.211735880000000      4.099144580000000     -0.026894090000000
O       2.043528880000000     -2.875750900000000      3.114083220000000
H       1.997479820000000     -2.313899970000000      3.887668940000000
H       1.520949640000000     -2.419429970000000      2.454603140000000
O      -0.566207740000000     -3.598113770000000      2.857438950000000
H      -0.496645830000000     -2.979608010000000      2.130222610000000
H      -1.349279480000000     -3.321713640000000      3.333499290000000
O      -1.761865000000000      3.872544170000000     -3.385970250000000
H      -1.492532010000000      4.161356050000000     -4.257910200000000
H      -1.516474440000000      4.594645540000000     -2.807537090000000
O      -2.166523430000000     -4.222712960000000     -0.657210210000000
H      -1.962629320000000     -3.350407290000000     -0.994466570000000
H      -2.477430690000000     -4.708690410000000     -1.421012830000000
O      -0.352774360000000      1.524031960000000     -4.907057290000000
H      -0.903128460000000      1.229022960000000     -5.632530850000000
H      -0.852629580000000      2.230832190000000     -4.498633450000000
O      -0.306262970000000     -1.188397570000000      4.720521340000000
H      -1.092251990000000     -1.419349670000000      5.215611460000000
H      -0.189531540000000     -1.911643880000000      4.104469080000000
O       1.158182070000000      3.524149790000000      3.302512520000000
H       0.476855080000000      4.132777830000000      3.588164900000000
H       1.493758890000000      3.903571860000000      2.490318620000000
O      -3.332026900000000     -2.241355870000000     -3.049727220000000
H      -3.895956510000000     -2.702542360000000     -2.428822840000000
H      -2.602969710000000     -2.842163410000000     -3.203797860000000
O       6.289660110000000     -3.576337310000000     -3.451491380000000
H       7.231352680000000     -3.618406520000000     -3.285126910000000
H       5.986446470000000     -2.834312690000000     -2.928334820000000
O      -0.616676670000000     -3.767307400000000     -3.520270030000000
H      -0.578733980000000     -2.832179730000000     -3.319450620000000
H      -0.776925300000000     -3.803951590000000     -4.463249040000000
O      -4.018945600000000      1.010709660000000     -3.248520640000000
H      -4.757616260000000      0.828084000000000     -2.667792330000000
H      -3.601369010000000      0.159582830000000     -3.380599220000000
O       3.399347600000000     -3.914850100000000     -1.666755830000000
H       3.382221910000000     -4.225539430000000     -0.761542770000000
H       3.896475570000000     -3.097664940000000     -1.630644320000000
O       3.431769090000000      4.273180620000000     -0.188815500000000
H       4.056839620000000      4.937073980000000     -0.479958560000000
H       2.693171350000000      4.774254220000000      0.157060870000000
O       4.011361040000000     -1.044724360000000      3.828580200000000
H       3.662023810000000     -1.642162290000000      3.167321350000000
H       4.548679640000000     -1.599869640000000      4.393676920000000
O       5.327464290000000     -1.004530570000000     -1.569857190000000
H       5.851528350000000     -0.769754820000000     -0.804044520000000
H       4.456688430000000     -0.654701650000000     -1.381174970000000
O      -4.168274390000000      6.780584880000000     -1.307382660000000
H      -4.095354920000000      7.232686300000000     -0.466835870000000
H      -4.041437490000000      5.856040670000000     -1.094398540000000
O       1.293090940000000      3.632699450000000     -4.414057450000000
H       0.424017540000000      3.909219290000000     -4.123402920000000
H       1.891536640000000      4.265565470000000     -4.017100040000000
O       1.315897120000000      5.750354060000000      0.835255300000000
H       0.767308370000000      4.975547390000000      0.712957120000000
H       0.703789230000000      6.485500360000000      0.801853350000000
O      -0.256901190000000      1.256321140000000      6.154881450000000
H      -0.147624120000000      0.418719540000000      5.704643830000000
H      -0.386163420000000      1.892043630000000      5.451049060000000
O       2.316551460000000     -3.858130470000000     -4.161296950000000
H       2.843702590000000     -3.676750660000000     -3.383193560000000
H       1.412640050000000     -3.847811270000000     -3.846543840000000
O       3.371292170000000     -5.066091170000000      0.797439140000000
H       3.830768370000000     -5.665322100000000      1.385687170000000
H       2.712251750000000     -4.645746350000000      1.349895300000000
O      -5.483683710000000     -2.597436600000000      1.102778590000000
H      -6.297637830000000     -2.815801040000000      0.648876060000000
H      -5.112239120000000     -1.875651720000000      0.595543590000000
O      -0.897933920000000      6.112422790000000     -1.358291950000000
H      -1.846917050000000      6.172772410000000     -1.467931270000000
H      -0.703970220000000      6.692985220000000     -0.622386260000000
O       1.713638350000000     -6.102722530000000     -1.176854560000000
H       2.259971990000000     -5.799620560000000     -0.451678310000000
H       2.284877380000000     -6.681072890000000     -1.682254080000000
O      -4.538944380000000      0.680521930000000      6.378749240000000
H      -3.744355550000000      0.262509800000000      6.710602060000000
H      -5.022029690000000     -0.027067290000000      5.951926180000000
O       0.559167020000000     -3.690160300000000      5.356283980000000
H      -0.175793340000000     -3.276887750000000      5.809352300000000
H       0.250287140000000     -3.810945630000000      4.458377550000000
O       4.305290760000000      2.058993740000000     -4.456675860000000
H       3.456713200000000      2.162224990000000     -4.887362840000000
H       4.913102980000000      1.859448510000000     -5.168699630000000
O      -6.236667840000000     -0.281062810000000     -2.347725460000000
H      -7.118256840000000     -0.653862630000000     -2.355003600000000
H      -5.762304520000000     -0.773559530000000     -3.017545030000000
O      -6.928018500000000      3.911925350000000      0.395809690000000
H      -6.238897290000000      4.422286910000000      0.821103560000000
H      -6.849706070000000      3.037753320000000      0.777807410000000
O      -1.598280350000000     -6.592499820000000      0.550964870000000
H      -1.400154560000000     -6.415541480000000      1.470564650000000
H      -1.685506460000000     -5.726212870000000      0.153258480000000
O       4.675124980000000     -0.933568380000000     -4.912447610000000
H       3.819543940000000     -1.325423570000000     -4.737340670000000
H       4.539322080000000      0.005520780000000     -4.786348560000000
O      -4.840846680000000      3.597975160000000     -3.418626040000000
H      -3.989443410000000      3.991672760000000     -3.609273660000000
H      -4.647681240000000      2.674214910000000     -3.258669910000000
O       3.146064750000000      5.405602290000000     -3.105394370000000
H       3.173080220000000      5.077078450000000     -2.206743110000000
H       3.360215760000000      6.335288780000000     -3.027585510000000
O      -6.969996610000000      0.507938480000000      0.150380800000000
H      -7.549020150000000      0.486903600000000      0.912300160000000
H      -7.150383100000000     -0.311201700000000     -0.310815380000000
O       2.525769810000000      1.502786290000000      6.392068250000000
H       1.576301400000000      1.406677360000000      6.317874920000000
H       2.762303110000000      0.970073930000000      7.151345130000000
O       6.314319080000000      3.264314130000000     -0.265767490000000
H       5.410895550000000      3.576304230000000     -0.213614480000000
H       6.341094340000000      2.739268280000000     -1.065668600000000
O       6.333919350000000      1.155316320000000     -2.881542170000000
H       6.007820500000000      0.364761620000000     -2.451525150000000
H       5.582661690000000      1.489043140000000     -3.371919760000000
O      -0.894190630000000      4.901316340000000      5.049189910000000
H      -0.871029810000000      5.855224940000000      4.973336100000000
H      -0.162421260000000      4.688798630000000      5.628484000000000
O       1.914208650000000     -5.606692710000000      3.855474820000000
H       1.896709190000000     -4.681941200000000      3.608978870000000
H       1.026888520000000     -5.919064280000000      3.678503540000000
O      -1.140012460000000     -6.232084130000000      3.219859140000000
H      -0.931459260000000     -5.304404650000000      3.109640340000000
H      -0.822296360000000     -6.446937160000000      4.096857710000000
O      -4.336985000000000     -5.660869370000000      0.494464060000000
H      -3.600485080000000     -5.225676980000000      0.065037360000000
H      -4.934225360000000     -4.949564930000000      0.725941430000000
O      -3.500380120000000     -5.706301920000000     -2.506045460000000
H      -4.308262940000000     -5.212093790000000     -2.367065230000000
H      -3.366948020000000     -5.686500540000000     -3.453692870000000
O      -1.401873860000000      4.231674780000000      1.419856530000000
H      -1.013218120000000      3.365132520000000      1.539368300000000
H      -2.177032910000000      4.074735740000000      0.880662300000000
O      -3.681972520000000      4.511330430000000      4.271992070000000
H      -2.766679740000000      4.628853450000000      4.526274030000000
H      -4.073275440000000      4.028732780000000      5.000149590000000
O      -0.073939550000000     -6.476914070000000     -3.214100550000000
H      -0.166954910000000     -5.534923940000000     -3.356348840000000
H       0.749000130000000     -6.704827630000000     -3.646602030000000
O      -3.665884410000000      0.737786130000000     -6.192191800000000
H      -4.526426800000000      0.874318450000000     -6.588496690000000
H      -3.810647530000000      0.864557130000000     -5.254532690000000
O      -1.232810460000000     -0.028567050000000     -7.138171470000000
H      -1.425094330000000     -0.587809060000000     -7.890838150000000
H      -2.090094580000000      0.274668320000000     -6.839266640000000
O       0.876158550000000     -2.274908490000000     -6.824168250000000
H       1.274606670000000     -2.201760920000000     -5.956919510000000
H       0.225819850000000     -1.573016820000000     -6.849456490000000
O       5.572537300000000     -3.422442560000000      3.183556270000000
H       5.924871650000000     -2.541901440000000      3.312938160000000
H       4.726678910000000     -3.282332680000000      2.757968850000000
O       7.255722370000000      0.070224840000000      0.821868320000000
H       7.909577190000000      0.739550000000000      1.023634360000000
H       7.713549110000000     -0.548782350000000      0.253135850000000
O      -6.377204920000000      1.592301550000000      3.332673970000000
H      -6.171132510000000      2.382139890000000      2.832752580000000
H      -7.222286730000000      1.303772190000000      2.987972100000000
O       1.328803930000000      0.883524510000000     -7.206334040000000
H       0.888713420000000      0.110724150000000     -7.560356340000000
H       0.897578970000000      1.041628020000000     -6.366524450000000
O       5.995882710000000     -4.355471050000000      0.446840990000000
H       5.826568290000000     -3.986910320000000      1.313863170000000
H       6.949157390000000     -4.427408640000000      0.398630880000000
O      -5.682012250000000     -2.055992020000000     -4.406609860000000
H      -4.797789720000000     -2.051617930000000     -4.040053970000000
H      -5.653607290000000     -2.721645130000000     -5.093873230000000
O       1.379775920000000      3.962833120000000      6.209674720000000
H       1.531858050000000      3.810804410000000      5.276942100000000
H       2.226362640000000      4.256671430000000      6.546099760000000
O       4.338585080000000      5.386242610000000      2.952555170000000
H       4.795573780000000      5.880021670000000      2.271691450000000
H       3.886485130000000      6.052747240000000      3.469864600000000
O      -4.542482310000000      5.719414370000000      1.913165070000000
H      -4.504694990000000      6.652328460000000      2.124056680000000
H      -4.260947020000000      5.280340620000000      2.715775780000000
O      -1.134611530000000     -4.029170140000000     -6.296856760000000
H      -1.555841770000000     -4.121544430000000     -7.151411570000000
H      -0.420380310000000     -3.409858000000000     -6.447050230000000
O      -6.061906790000000     -3.048623800000000      3.734619200000000
H      -5.224985530000000     -3.244243620000000      4.155959360000000
H      -5.833155600000000     -2.852562090000000      2.826068410000000
O      -1.818673350000000     -0.784425160000000      7.627796920000000
H      -1.349987430000000     -0.087310720000000      7.168888660000000
H      -2.369632130000000     -0.325913580000000      8.262181190000000
O      -3.857891500000000     -6.168978700000000      3.132960490000000
H      -3.953346140000000     -6.098627420000000      2.183133690000000
H      -2.919393720000000     -6.297025430000000      3.271010430000000
O      -0.563540900000000      7.902104030000000      0.662505860000000
H      -1.242561380000000      8.449073130000000      1.057458800000000
H      -0.162241340000000      8.460884020000000     -0.003043110000000
O      -2.458086940000000     -4.493601350000000      6.173687120000000
H      -3.157306170000000     -4.675952920000000      5.545935410000000
H      -1.650887370000000     -4.588235480000000      5.668014230000000
O       4.511538350000000      1.736592980000000      1.704502420000000
H       4.241837200000000      0.947456380000000      1.234655050000000
H       5.105521160000000      2.183673100000000      1.101563270000000
O      -0.564626670000000      2.905250710000000     -7.539324910000000
H       0.359408970000000      2.946251180000000     -7.292933070000000
H      -0.761589230000000      1.969301810000000     -7.577236020000000
O       4.069092350000000     -6.742658290000000     -2.377155100000000
H       4.975177710000000     -6.872579860000000     -2.657086420000000
H       4.031741960000000     -5.826414960000000     -2.102682980000000
O      -2.898338310000000     -5.758577470000000     -5.158077500000000
H      -3.602562470000000     -5.512084240000000     -5.757695090000000
H      -2.246846390000000     -5.063971640000000     -5.254580610000000
O       3.275274230000000      7.626669970000000     -0.513077910000000
H       4.127593790000000      7.354114870000000     -0.173229510000000
H       2.640866760000000      7.129999490000000      0.003717440000000
O       5.346732270000000      2.783496670000000      4.852091640000000
H       5.923844980000000      3.193586930000000      4.207887690000000
H       5.932663320000000      2.264992670000000      5.403517280000000
O       1.875926980000000      4.027667850000000     -7.041356840000000
H       1.690544260000000      3.916194430000000     -6.108919840000000
H       2.558737110000000      4.697796440000000     -7.071850080000000
O       6.819385680000000     -1.473371070000000      4.613552580000000
H       6.435669330000000     -0.729407910000000      4.149319430000000
H       7.026281310000000     -1.132446400000000      5.483722910000000
O      -2.032156040000000      2.384374290000000      7.879829840000000
H      -1.414475070000000      1.976234590000000      7.273097580000000
H      -2.335025480000000      1.665056200000000      8.433980920000000
O       4.522217290000000     -5.279625750000000      4.872696470000000
H       4.902518190000000     -4.585569130000000      4.334283540000000
H       3.627431080000000     -5.373746940000000      4.545999860000000
O      -7.442583250000000      2.364876430000000     -3.578884610000000
H      -7.151733930000000      1.492298660000000     -3.313843990000000
H      -6.646552850000000      2.896361990000000     -3.569369770000000
O       4.622004030000000     -6.879177430000000      2.393320730000000
H       4.674761090000000     -6.378631970000000      3.207509150000000
H       4.918562130000000     -7.757449550000000      2.631906580000000
O       7.218165380000000      4.120934880000000      2.502138930000000
H       6.615506010000000      4.746163270000000      2.904783920000000
H       6.906099790000000      4.032699680000000      1.601549420000000
O      -3.496691600000000     -7.897807860000000     -0.894930890000000
H      -3.591693600000000     -7.080508210000000     -1.384040020000000
H      -2.720985750000000     -7.762940360000000     -0.350575270000000
O      -3.182255740000000      6.473233420000000     -4.980090450000000
H      -4.109807880000000      6.474655010000000     -5.216473270000000
H      -2.750860680000000      6.018941710000000     -5.703795620000000
O       7.321965380000000     -0.306486180000000     -4.952193300000000
H       6.497713230000000     -0.786553650000000     -5.032039740000000
H       7.206009720000000      0.242077740000000     -4.176394520000000
O       8.705249770000000      0.994786100000000     -1.288442250000000
H       7.856430520000000      1.214055560000000     -1.672706000000000
H       8.822485349999999      1.633449570000000     -0.585166610000000
O       0.145720950000000     -8.604995270000000      2.144294650000000
H       0.516458500000000     -8.479886649999999      1.270719620000000
H      -0.264011580000000     -7.765619820000000      2.353579050000000
O      -0.218153880000000     -6.580623330000000     -5.969086570000000
H       0.661316710000000     -6.553040350000000     -5.592254360000000
H      -0.541846300000000     -5.683390670000000     -5.888908020000000
O       2.108302250000000     -7.240476900000000     -4.723848970000000
H       2.705554770000000     -7.096832180000000     -3.989759420000000
H       1.846187740000000     -8.157625019999999     -4.644054500000000
O      -8.605633850000000      0.367468700000000      2.367122610000000
H      -8.084449120000000     -0.401919810000000      2.596555900000000
H      -9.310049850000000      0.382080510000000      3.015055040000000
O       5.926308530000000      1.406113140000000     -6.541024080000000
H       6.556221060000000      0.938499710000000     -5.992590190000000
H       6.438591010000000      1.707423850000000     -7.291364240000000
O      -2.050646590000000      5.132090570000000     -7.058358130000000
H      -2.880081960000000      4.967919670000000     -7.507041440000000
H      -1.533969290000000      4.341115820000000     -7.212096050000000
O       8.741523810000000     -2.050115190000000     -0.426318490000000
H       9.382923670000000     -1.642630550000000      0.155741930000000
H       8.928566040000000     -1.677498930000000     -1.287947280000000
O      -5.884002440000000     -2.498372630000000      6.399106830000000
H      -4.978513930000000     -2.284591270000000      6.174118140000000
H      -6.350183020000000     -2.477933420000000      5.563349840000000
O       1.879203790000000     -5.907296590000000      6.558586350000000
H       1.450864710000000     -5.182772780000000      6.102710590000000
H       1.842985220000000     -6.635785720000000      5.938728580000000
O      -8.151369360000000     -2.148576320000000     -3.269899070000000
H      -7.280810400000000     -2.188103270000000     -3.665874530000000
H      -8.622429940000000     -1.497846500000000     -3.790364700000000
O      -5.864220180000000      3.479779230000000     -5.935993000000000
H      -5.475857050000000      3.527607670000000     -5.062426540000000
H      -6.763845180000000      3.190719650000000     -5.783181860000000
O       0.244933170000000      8.600251070000001     -2.807833570000000
H       0.000252420000000      7.781703080000000     -2.376159680000000
H      -0.025254080000000      8.481456140000001     -3.718392990000000
O      -7.289341820000000     -4.793253000000000     -2.409884040000000
H      -7.570194220000000     -3.919955870000000     -2.683207820000000
H      -6.739019260000000     -4.638994920000000     -1.642042020000000
O       5.893126570000000     -0.282769200000000      6.876937490000000
H       5.358355330000000     -0.092679040000000      7.647727530000000
H       5.261083800000000     -0.525158370000000      6.200179580000000
O      -4.338660300000000     -2.142115530000000     -7.711499180000000
H      -3.664924500000000     -2.341966530000000     -8.361400320000000
H      -4.064467030000000     -1.308015460000000     -7.330281440000000
O       2.197984420000000      6.547273300000000      5.979360830000000
H       1.875174110000000      7.360296500000000      5.590749700000000
H       1.516758260000000      5.902697850000000      5.787826900000000
O       2.744507640000000     -3.037202600000000      8.244100789999999
H       2.301913830000000     -2.336309000000000      7.765466590000000
H       2.502135490000000     -3.836865420000000      7.777167220000000
O       6.550727110000000      6.168608310000000     -1.892721370000000
H       6.747428690000000      6.340238570000000     -2.813635800000000
H       6.556759780000000      5.214204370000000     -1.819861410000000
O       5.745053840000000      7.166179730000000      0.529293420000000
H       6.036529480000000      8.077791870000000      0.513895340000000
H       6.034668080000000      6.807422180000000     -0.309544140000000
O      -7.000723880000000     -5.892781240000000      0.993584430000000
H      -6.214785040000000     -6.417249160000000      0.840400300000000
H      -7.162897980000000     -5.972359310000000      1.933583760000000
O       8.043943550000000     -4.062011120000000      2.243507120000000
H       8.590015279999999     -4.522236390000000      2.880869030000000
H       7.217424410000000     -3.909275500000000      2.701513430000000
O       8.797291610000000     -0.930176070000000      2.827151920000000
H       8.662279010000001      0.005646070000000      2.976283950000000
H       8.045151730000001     -1.350588300000000      3.244010410000000
O       6.516403490000000     -6.604452140000000     -1.192222140000000
H       6.189004780000000     -5.900868540000000     -0.631854370000000
H       6.760228160000000     -7.302043840000000     -0.583824900000000
O       3.509561120000000      8.100100970000000     -3.182527480000000
H       2.638561860000000      8.384756670000000     -3.459228170000000
H       3.481708080000000      8.137235450000000     -2.226453700000000
O       0.608018060000000     -9.028469420000000     -2.563793600000000
H       0.907145200000000     -9.011207300000001     -1.654696900000000
H       0.092121270000000     -8.228186700000000     -2.661925740000000
O       1.367504480000000     -8.182442360000000      4.537453190000000
H       0.929883740000000     -8.461766030000000      3.733277710000000
H       2.301080520000000     -8.273256249999999      4.346611750000000
O       8.594105689999999      1.944687220000000      3.567476730000000
H       9.210942490000001      2.259250520000000      4.228380750000000
H       8.091495770000000      2.720699440000000      3.319645850000000
O      -7.243172100000000     -0.699025690000000     -6.172904850000000
H      -7.784472820000000     -0.072360780000000     -5.692783560000000
H      -6.692726400000000     -1.103757770000000     -5.502506970000000
O       9.168542710000001      2.456014530000000      0.958460320000000
H       8.508412440000001      2.991336360000000      1.398790200000000
H       9.991532550000001      2.687773360000000      1.388817620000000
O      -4.683860050000000     -4.724663810000000     -6.930500810000000
H      -4.573373610000000     -3.806301660000000     -7.176743670000000
H      -4.790137970000000     -5.185200150000000     -7.762872800000000
O      -3.469930700000000      7.727111360000000      4.543594600000000
H      -3.532741720000000      6.776259700000000      4.453219010000000
H      -4.207742120000000      7.964031740000000      5.105497500000000
O       4.699112230000000     -8.400295090000000     -0.259055160000000
H       4.631942490000000     -7.629815390000000     -0.823041950000000
H       4.752826620000000     -8.044488330000000      0.627933090000000
O       9.117331450000000     -1.116393480000000     -2.953240010000000
H       8.870371360000000     -0.972008600000000     -3.866692560000000
H       9.131984960000000     -0.240576280000000     -2.567284900000000
O      -2.051807370000000     -3.190068870000000      8.906612660000000
H      -2.079537980000000     -2.288387090000000      8.586561379999999
H      -2.202943900000000     -3.725865480000000      8.127952540000001
O       2.160067100000000     -5.336939090000000     -7.799315910000000
H       1.490899010000000     -5.759010560000000     -7.260519490000000
H       1.856183900000000     -4.434430590000000     -7.896090130000000
O       6.298973390000000      5.787433600000000     -4.574768510000000
H       5.440081600000000      5.716394860000000     -4.158246920000000
H       6.697477960000000      4.925909170000000     -4.451473730000000
O       8.446359149999999     -4.727646380000000     -0.803286040000000
H       9.354700240000000     -5.028083470000000     -0.833049440000000
H       8.510842170000000     -3.779002830000000     -0.693062630000000
O      -0.706693150000000      7.942844700000000     -5.556649130000000
H      -1.501235680000000      7.465794180000000     -5.317156320000000
H      -0.164345660000000      7.295134140000000     -6.006718090000000
