391
Properties=species:S:1:pos:R:3 charge=0 spin=1 spin_multiplicity=1 metal=Lu geometry=box boundary=non-pbc pbc="F F F"
Lu       7.89093312       7.89093312       7.89093312
O        9.64300993       8.74392642       8.82272133
H       10.00355441       9.63606631       8.76449684
O        5.95638750       8.31040994       8.75532448
H        5.64571480       8.20137679       9.66135442
O        9.39649776       6.34606452       7.78022572
H        9.40335051       5.45928030       8.15819764
O        7.62676513      10.16750204       7.69741512
H        7.85399710      10.72235628       6.95126886
H        7.26494939      10.77247509       8.34497116
O        7.96080561       6.96930923       9.99704975
H        8.73287293       6.79814138      10.53635064
H        7.22433573       6.67094396      10.53073703
O        9.25787837       8.50739797       6.14696300
H        9.78653088       7.93838721       5.58751228
H        9.42563367       9.39047468       5.81792573
O        6.48208107       8.18098705       6.09621737
H        5.68494386       8.70940903       6.05653979
H        6.56146050       7.80033676       5.22155394
O        6.71828336       5.91952322       7.72230460
H        6.01864199       5.70492964       7.10530916
H        6.82050325       5.12975671       8.25339009
O       10.56508659       2.64200874       5.04367304
H       11.20787999       2.06256453       4.63465852
H       11.06270200       3.42564639       5.27717418
O        8.47723845       2.37970306       0.55523036
H        8.40024511       2.05829061       1.45356099
H        9.40391901       2.59854716       0.45723937
O        3.82787373       1.71588608       0.43325240
H        4.71009899       2.08723007       0.42950256
H        3.38874919       2.14793351       1.16587542
O        7.33363719       9.20993206      11.40582301
H        7.41780562       8.76872184      12.25109282
H        7.77802483       8.63021745      10.78720968
O        2.82826867       3.41759513       2.30508056
H        1.99632992       2.94746387       2.36063554
H        2.70223904       4.04513291       1.59336102
O       14.53838387       4.74122315       9.96940047
H       13.88942811       4.44149145       9.33280863
H       15.05386835       5.39491927       9.49697167
O       11.42953804       7.59466620      10.92222036
H       12.19798817       7.31574922      10.42430315
H       10.82728891       7.93762776      10.26198919
O        0.64123885       0.61917739       5.18564355
H       -0.22483118       0.21738338       5.25431742
H        0.72054431       0.86230321       4.26323782
O        1.47221931       1.06325682       2.17628563
H        0.53806364       0.93041115       2.01523578
H        1.88882731       0.88508212       1.33312290
O        9.50226501       7.07001175       3.01782878
H        9.08901523       7.72464193       3.58078152
H        9.14314665       7.24110267       2.14720042
O        5.66473680       1.76354837      11.34429174
H        6.55888680       1.80912932      11.00569168
H        5.71442953       2.17136388      12.20884306
O        3.01608045      10.74039599       7.80831735
H        3.94803930      10.58422196       7.65569291
H        2.99029367      11.29632233       8.58710665
O        5.17827544       6.56716302      13.33459180
H        4.99684124       5.62898417      13.27861031
H        5.18570238       6.86486165      12.42489284
O        7.69238639       7.58782326      13.55952084
H        6.80894238       7.22389153      13.61707263
H        8.02863624       7.54433928      14.45466162
O        0.66896157      11.01244484       9.16824550
H        0.41740762      10.09815616       9.03775163
H        0.30274296      11.47227575       8.41281760
O       11.21005249      14.98259821       6.97324671
H       11.99550946      14.85519921       6.44121411
H       11.50021778      14.82366736       7.87145433
O       15.62169559      12.58736088       7.11140851
H       15.26850292      12.28081632       6.27623355
H       16.10245947      13.38500890       6.89037555
O       10.32468580      12.12521363       8.12645585
H       10.53265454      12.95967250       7.70614735
H       11.08798177      11.93426143       8.67156901
O        5.88734730       0.13774063      13.51352948
H        5.67455995       0.25550426      12.58774057
H        6.31917111       0.95377547      13.76620947
O        9.83236520       4.55143471       1.47512100
H        9.73248801       5.38382804       1.93704927
H        8.96088443       4.36460998       1.12605134
O       12.36042347       1.14761394       9.91450235
H       12.82476440       1.84554920       9.45243556
H       12.68508121       1.19770597      10.81356853
O        8.00626832      13.46618602      15.27973239
H        8.50873141      13.95067262      14.62472445
H        7.47849474      14.13313482      15.71889771
O       14.97039165       7.37540558      12.89344231
H       15.72683303       6.91433478      12.53089301
H       14.63339707       6.78848784      13.57034264
O        3.29643681       8.82360886       2.50441548
H        3.63732546       7.94640291       2.67916238
H        2.38415637       8.68073779       2.25229625
O        2.21449512       9.19372362       5.71937955
H        2.65633323       9.57269266       4.95951549
H        2.49985994       9.73328643       6.45671986
O        9.19785280      11.30513785       5.79062024
H        9.45438842      11.98017501       5.16233197
H        9.61378286      11.57028381       6.61094435
O        9.98157219      11.69498198       0.10795861
H        9.32188349      12.35690365      -0.09917022
H       10.77173362      12.19750531       0.30631957
O        0.43607106      12.64483773       1.96988012
H        0.05472845      13.51024845       2.11777852
H       -0.31766373      12.06994566       1.83715935
O        4.22460014       6.34054320       3.11385361
H        3.42929229       5.82452772       3.24593422
H        4.42086155       6.24468454       2.18190704
O       12.11911360       5.43148623       0.29184604
H       11.35715129       5.25902468       0.84493038
H       11.75799188       5.53582245      -0.58845896
O        7.02326706      10.05889283       4.20439997
H        7.35945849      10.08114409       3.30845798
H        7.74782009      10.38086658       4.74067196
O        3.95108782      14.80880742       0.82414066
H        4.83998067      15.13545382       0.68484436
H        3.83559694      14.82498522       1.77421012
O        1.88785028       5.29590129       4.03391217
H        0.93819285       5.31297465       4.15261815
H        2.05455299       4.48787041       3.54859975
O        6.73514757       6.17221638      15.67569613
H        7.43958608       5.60280971      15.36622196
H        6.05042369       6.08926965      15.01199070
O        1.27641311       2.93142301       7.31745106
H        1.17848616       2.50310956       6.46704543
H        1.65249018       3.78758891       7.11305484
O        6.68818562       9.80972197      15.64851111
H        5.98237367       9.51424292      15.07339941
H        7.46538748       9.81804408      15.08983423
O        4.30868915       3.08588309       4.56266087
H        3.72799168       2.73758854       5.23920591
H        3.77020455       3.10654854       3.77156093
O        5.49731019      11.78214066       8.20412853
H        6.15877879      12.20195940       7.65418003
H        4.73138624      12.35215260       8.13572723
O       15.43771627       8.60403479       5.00944636
H       14.98532829       9.43682432       4.87513870
H       16.34257847       8.85061230       5.20090332
O       12.17288749      12.65186220       3.82705678
H       11.80509898      12.48106448       4.69411594
H       11.41290266      12.68346009       3.24597463
O        5.39710719       5.43548089       5.39479731
H        4.88313130       5.95538202       4.77692722
H        5.28838497       4.53229010       5.09704286
O       14.33374175       5.27656104      14.50214608
H       13.83344414       5.33740913      15.31592225
H       13.79438690       4.73172386      13.92901379
O        3.22784127       8.09897662       8.53331868
H        4.15869552       7.94709093       8.37000018
H        3.11083121       9.03936805       8.39839488
O       13.54077991      10.77198840       1.68547707
H       13.33717425      11.08942473       0.80569826
H       13.61308276       9.82258646       1.58729309
O        2.87797233       4.31515445      15.51980637
H        3.36659519       3.49216633      15.53284808
H        3.49926292       4.96825275      15.84181949
O       15.50251070      13.52968182      13.34572826
H       15.57224694      14.44075527      13.06057238
H       16.23767626      13.40940384      13.94680782
O        8.83354723       7.79908004       0.48412310
H        8.09064757       7.19959678       0.55449182
H        9.54336517       7.26141985       0.13296523
O        8.37260259       4.59272746       5.68505281
H        9.01703048       3.97107378       5.34668726
H        8.86138886       5.12927495       6.30910138
O       15.76340189       9.94458514      12.48252798
H       15.44133917       9.08359838      12.74937859
H       16.60635581       9.76677252      12.06534313
O        8.78191733       4.63880948      14.74953296
H        9.51856217       4.10335087      15.04427063
H        9.14500663       5.18248878      14.05038290
O        0.61609994       8.55455658       2.12800014
H        0.49053077       9.26377988       2.75844962
H       -0.26247923       8.20289895       1.98423854
O        2.18918177       5.42638963       6.73401902
H        2.05494976       5.38303394       5.78726991
H        3.14007625       5.41056742       6.84256019
O       14.53913970      11.70512492       4.77728515
H       15.23938119      12.09368497       4.25296198
H       13.73319996      12.05968958       4.40181628
O        0.90774562       3.07716277      10.00840701
H        0.19492236       3.71482694       9.96968694
H        1.13341500       2.91358108       9.09268533
O        9.33454647      13.25000461       2.24376291
H        8.76645378      13.41882686       1.49209703
H        9.01784096      13.84594175       2.92257686
O        2.85473075      14.25976780      13.33645135
H        3.28295582      15.03917863      13.69053312
H        2.41303961      13.86592483      14.08880000
O       12.60614444       9.36616655       6.64965507
H       12.39007946       9.13710817       5.74573029
H       13.34281270       8.79684417       6.87196959
O        5.78588835      11.16153135       2.04766996
H        6.05313660      10.65173196       1.28287274
H        5.01936973      11.65304390       1.75254886
O        1.17405947       6.19208339       9.13851761
H        1.97780661       6.04302315       9.63651702
H        1.36692054       5.85290521       8.26444976
O       13.75707256       3.25205510       3.39703474
H       12.98402493       3.63154130       2.97915984
H       13.46222561       2.39999661       3.71842770
O       14.72776314       1.07949122       1.16840585
H       14.25803533       0.36899239       1.60518843
H       15.18465177       0.65451752       0.44253949
O       12.97463424       3.24468582       8.29479823
H       12.02936647       3.35365409       8.39884914
H       13.06789874       2.67400006       7.53200643
O       12.66161313       3.70610897      13.04061802
H       11.91836783       4.02240877      13.55420608
H       12.47859434       3.99921835      12.14796867
O       15.27682913       2.71141918      12.30376687
H       14.41974302       3.03027276      12.58655237
H       15.10803123       2.28021827      11.46602892
O        8.93318261       9.95051574      14.08535334
H        9.75381500       9.50586271      13.87303751
H        9.18916402      10.65570029      14.67984481
O        9.89414061       0.49482139      14.98136510
H        9.87586549       0.60209998      14.03037132
H        9.08964596       0.91478358      15.28575294
O       11.96881761       1.32039390       1.12090520
H       12.84230732       1.53290438       0.79213953
H       11.48502920       1.03111898       0.34727697
O       10.95032165       3.02200699      15.04116331
H       11.62123440       3.59153129      15.41766031
H       11.44254396       2.31828592      14.61840368
O       13.30342265      14.54666692       2.23645771
H       12.87159742      13.88046514       2.77118568
H       12.87037556      14.48858939       1.38479519
O        6.85982430       7.02882784       3.66142035
H        7.24710220       7.44201266       2.88971706
H        5.94343653       6.88768029       3.42363336
O        9.34934149      14.19033875       9.63493057
H        8.93821121      14.61250262       8.88062202
H        9.54031588      13.30078334       9.33752210
O        1.15607980       0.21449488      12.11283843
H        1.14010132      -0.65478624      11.71243005
H        1.79664825       0.70446922      11.59725231
O       12.35089564       1.03496533      12.63214906
H       12.44653429       1.94835647      12.90196700
H       11.40811214       0.87264406      12.66444343
O       11.99590646       8.13836926       3.22567900
H       11.80242994       8.96412790       2.78192080
H       11.19910432       7.61807580       3.12256303
O       14.98012575       8.80548191       9.77219081
H       14.39929193       9.41182947       9.31261866
H       15.14566823       9.22509235      10.61643876
O        3.90408558       5.76914493       9.76335039
H        4.43902319       5.10411288      10.19671626
H        4.15141142       6.59041824      10.18828792
O        1.55052394       0.47811952       8.50791545
H        1.55100304       1.27437649       7.97668437
H        1.89358162       0.75603601       9.35721262
O        5.80255310       3.57803129       0.61061245
H        6.73629927       3.37277961       0.65774707
H        5.77185209       4.49453204       0.33617547
O        4.74180054       8.17611761      11.18537119
H        3.95195275       8.17657048      11.72608562
H        5.30457215       8.84107640      11.58204456
O       12.49018129       0.87152128       3.75262618
H       12.09974375       1.22835114       2.95483998
H       13.08327255       0.18654985       3.44393745
O        4.44279621       8.97851200      14.35788562
H        4.77515044       8.10918916      14.13416639
H        3.81505359       9.18125823      13.66429712
O        1.06334307      10.68893043       3.75366769
H        1.14961727      11.05325589       4.63460785
H        1.00090217      11.45444964       3.18242929
O        6.55262086      12.52819017      13.18081245
H        6.80523685      12.80783747      14.06070698
H        7.38181305      12.43075927      12.71264648
O       10.20922434       3.27143215       8.18305227
H        9.29161528       3.46709885       8.37263072
H       10.22071303       3.05451463       7.25082556
O        9.64524347       5.98558212      12.54970643
H        9.03361755       6.69567461      12.74442220
H       10.28907984       6.37828221      11.96022088
O       12.83321931       5.80932571       7.39981443
H       13.04632121       4.89097541       7.56550132
H       13.67883364       6.25770439       7.41098564
O        3.04409203       1.52336798      10.65659007
H        3.94804878       1.78104664      10.83740969
H        2.59655566       2.34466980      10.45310452
O       13.35752726      11.39260108       9.53489610
H       13.72564715      12.27033489       9.63639955
H       12.71465376      11.31893782      10.24024654
O        1.17693470      13.24887762      11.06564734
H        1.02190277      12.56573425      10.41333447
H        0.43697457      13.17731153      11.66861430
O        6.53685475       2.75402727      13.90647379
H        5.83438866       2.98946392      14.51256191
H        7.28283842       3.28473922      14.18591076
O        5.73268769       1.45154319       2.51671149
H        5.26813410       2.00240233       3.14677181
H        6.65929860       1.60229838       2.70351869
O        3.59021816       2.28323567      13.56558390
H        3.91699778       3.18292516      13.56798232
H        3.79920822       1.94967380      14.43810409
O       13.66566089      15.36056868       5.83715666
H       13.17749037      16.06938536       5.41822910
H       13.80786291      15.66429110       6.73368503
O        9.05987977      12.85275526      12.10817049
H        9.46594593      11.99564316      11.97893824
H        9.23523854      13.32643854      11.29508668
O        8.44037359       0.65086673       7.39714636
H        8.69370768       1.53584937       7.65955714
H        9.26935485       0.18115112       7.30555404
O       13.80718478       6.45198517       4.68014443
H       14.44931975       7.09322934       4.98461189
H       13.13804371       6.97401166       4.23745896
O       13.90355326       7.84305384       1.30941822
H       13.40475072       7.94700797       2.11974001
H       13.42919051       7.17086043       0.82016589
O       15.11302570       7.29133892       7.46706666
H       14.74975039       7.88023508       8.12847742
H       15.28170611       7.85408178       6.71135558
O        6.66255216       0.01868457       0.33613689
H        7.20180196       0.57792167      -0.22305481
H        6.37472794       0.59411076       1.04484964
O        6.11351831       0.47941577       5.02954435
H        6.36567905       1.30085133       4.60777378
H        6.86373098      -0.09963532       4.89496120
O        0.05901338       4.58384138       1.37721463
H       -0.35968998       4.74405531       0.53148959
H       -0.66852531       4.42945139       1.97977834
O        8.81123751      14.67409335       4.77221839
H        8.68029858      15.13612521       5.60023614
H        9.32208672      15.28121292       4.23680197
O       14.85239134      13.90712520       9.47563169
H       15.60880741      14.06559662      10.04039127
H       15.21519590      13.46865109       8.70599207
O        2.65597059       9.46291290      12.36514551
H        2.57067523      10.33318243      12.75448789
H        2.74016417       9.62738496      11.42594786
O        5.72601901      11.33960165      10.87812084
H        6.18480181      10.52058434      11.06509903
H        5.72378768      11.40075129       9.92287868
O        5.27722261      13.01342677       4.91601001
H        5.63708437      13.87972901       4.72561100
H        4.64148412      13.16600254       5.61514451
O        3.12706509      13.42870120       7.40944456
H        2.31641966      13.83057561       7.09706213
H        3.10373197      12.53804802       7.05955269
O        4.10759092       6.64536788       0.41353270
H        4.66759610       7.41263186       0.53156666
H        3.23702767       7.00693829       0.24734512
O        4.34620947      15.04853720       9.87543073
H        4.01405371      14.59294358       9.10190707
H        3.73320427      15.77128351      10.00994549
O        8.32133105       2.08415521      10.85632197
H        8.65717271       2.96097423      11.04241504
H        8.94559268       1.49358099      11.27792766
O        7.54435405       3.50885882       8.67345362
H        6.89394347       3.10918455       8.09599505
H        7.57599290       2.93078161       9.43572493
O        4.55501588       1.76514141       7.70254103
H        4.61711463       1.08307890       8.37124599
H        5.02821526       1.40815655       6.95095870
O       11.10928043      10.58676985      10.98242836
H       11.39091268       9.67239416      11.01127670
H       10.26081856      10.56270696      10.53997466
O       11.34937427       9.05220388      13.21733639
H       11.21383485       8.43647325      12.49710261
H       12.03800252       9.63909494      12.90495544
O        8.33455109       2.12366973       3.28201852
H        8.00485392       3.00261312       3.09496199
H        9.06829114       2.26486829       3.88028296
O        1.00313837       5.24107688      11.68110989
H        0.16457792       5.19492866      11.22185119
H        1.13349335       4.36002871      12.03181424
O        1.84342830      12.85332785      15.43349751
H        2.63052300      12.32815564      15.57809325
H        1.33587078      12.75173021      16.23866527
O        2.92143895      14.85991732       3.34123691
H        2.24206111      14.22952997       3.58058890
H        2.44547562      15.58054807       2.92846328
O        1.68729361       7.70955444      15.55680752
H        2.17094021       8.43710286      15.16566676
H        1.34128309       8.06414127      16.37581713
O        3.90531120      11.76098083      13.11118620
H        3.67141333      12.68562718      13.03023705
H        4.44541292      11.58178555      12.34150378
O       12.64117535      12.80096104      13.36903096
H       13.56802939      13.03892277      13.34562925
H       12.50115167      12.46818229      14.25553167
O        9.76618711       0.26723986      12.27392489
H       10.19926640      -0.25508367      11.59875654
H        8.92165885      -0.16360221      12.40575424
O        8.51086802      10.08190762       1.92735937
H        9.02551061      10.69257300       1.39966377
H        8.67097967       9.22645277       1.52887087
