391
Properties=species:S:1:pos:R:3 charge=0 spin=4 spin_multiplicity=4 metal=Nd geometry=box boundary=non-pbc pbc="F F F"
Nd       7.89093312       7.89093312       7.89093312
O        6.88046647       6.38256632       9.38300777
H        6.82604254       6.40542761      10.34519870
O        9.88799930       8.97550901       8.48919878
H       10.02636649       9.78384898       8.99589102
O        6.90433359       8.31472403       5.80059280
H        6.49942035       9.11982200       5.45830852
O        7.78966570       8.80590421      10.20451753
H        8.23407373       9.58098757      10.54799843
H        7.29760243       8.46139542      10.94978209
O        9.54593158       6.30856146       8.86928889
H        9.66735182       5.38292310       8.65790632
H       10.20333404       6.48955443       9.54107411
O        7.80845908      10.32731858       7.38366207
H        8.05992330      11.05343833       7.95440518
H        7.51818356      10.74773302       6.57420320
O        9.56472496       7.82997583       6.04843343
H       10.51570732       7.75075049       6.12318460
H        9.40140925       7.88051539       5.10662370
O        5.44027575       8.28559069       8.08746271
H        4.87361858       8.76453505       7.48269516
H        4.85368255       7.99236752       8.78471476
O        7.19654163       5.78824794       6.75223407
H        6.59859689       5.11550503       7.07798075
H        7.46771395       5.47149208       5.89062910
O        1.36789002       0.27925578       1.80750803
H        1.80141193       1.07887175       2.10567728
H        1.33092891       0.36716710       0.85507046
O        0.47939008      12.89589948       0.60885329
H        0.55090177      13.79140993       0.93927567
H        1.14419732      12.40724196       1.09411303
O        7.90224026      12.71477742       6.04543355
H        7.60553557      13.62369682       6.00000562
H        8.24604263      12.53058296       5.17130303
O        8.88482868       3.95229478      11.39752062
H        8.55441965       4.02643428      12.29282227
H        9.69809471       4.45709884      11.39927284
O       12.43905713       6.68572916      14.27291842
H       13.04210141       6.85563736      13.54924678
H       11.72310762       6.18878994      13.87706548
O        8.28475373       8.05841972       3.26944968
H        8.21355614       8.95424969       2.93982656
H        7.63145811       8.00678691       3.96713925
O       11.24903768      13.16540661       6.31798822
H       10.47570913      13.42780549       5.81864703
H       11.95464700      13.71228329       5.97262866
O        5.16265534       6.67847719       3.19458876
H        4.47552826       6.11728964       3.55397262
H        5.85202991       6.07138329       2.92545768
O        4.06199376       9.29189294       0.27910819
H        3.24183135       9.08470028      -0.16881665
H        4.68186711       9.47383351      -0.42721078
O       10.20129508       2.15001853       0.74071723
H       10.98284151       2.66921483       0.93006407
H       10.15760233       2.12191318      -0.21507190
O       10.07779588       6.01371306       3.32337787
H        9.39583141       6.68062481       3.40328425
H        9.85571642       5.53807768       2.52295078
O       13.20769651      11.50041912       7.30080760
H       13.99804701      11.73096416       6.81251783
H       12.52663550      12.06519226       6.93554189
O        1.68414974       4.50965344       5.46663825
H        2.56542187       4.70727190       5.78371586
H        1.19099935       5.31754365       5.60928446
O        0.74532622      10.91431944      14.54653614
H        0.90195907      10.27071172      15.23752607
H        0.55597815      11.72757588      15.01450315
O       12.61009253      11.32516697       4.54876385
H       12.03705082      11.99907060       4.91442617
H       12.88986568      11.68004859       3.70495233
O        6.80080631       6.45184312       0.12851745
H        6.83779238       6.07948848       1.00954860
H        6.84121465       7.39824608       0.26606903
O        6.52404404       7.06931379      12.09568837
H        6.26666405       6.19168190      12.37808816
H        7.43801751       7.15070661      12.36819444
O       14.04007304      14.20275433       9.99761610
H       13.09272483      14.23465803      10.13082782
H       14.24331162      15.01005297       9.52518111
O       15.29402440       3.81363025      13.16165901
H       14.85856541       3.69912176      14.00634541
H       14.58561312       4.02276651      12.55285089
O        3.19879066      11.59610952       3.28320678
H        4.01969580      11.14258552       3.47468149
H        2.58392196      10.89649563       3.06250623
O       12.11840575      14.00689517       2.39285465
H       11.42689919      14.25899961       3.00481370
H       11.93014288      14.50701829       1.59870996
O       14.31815164      11.84711254       2.19717698
H       13.68592341      12.55380160       2.06637221
H       15.08531180      12.11471365       1.69112681
O        2.48385784       3.66818417      14.21787037
H        2.86063125       4.47740661      13.87228002
H        1.57784783       3.67428375      13.90909783
O        5.56817557      13.32908727       8.36162288
H        6.21002956      12.91777290       7.78276556
H        5.27458886      14.10391174       7.88236750
O        9.97991764       7.49687990       0.43840845
H       10.63352666       8.15623224       0.20542436
H       10.28472290       7.14131424       1.27321301
O        3.61819469      15.09744944       3.91896728
H        3.22689929      14.45914020       4.51535730
H        3.80414666      14.59954092       3.12288888
O        2.54628084       9.10363892       4.16998428
H        3.48049862       9.31199198       4.16237016
H        2.14671326       9.81118559       4.67590452
O        3.08046222      12.89976563      13.45021382
H        2.92296308      13.80465931      13.71964523
H        2.28385155      12.43239584      13.70162735
O        8.38647230       4.41326199       4.72939603
H        9.04236615       5.04605426       4.43680579
H        8.89491342       3.70999398       5.13329400
O       15.00380822      12.16754637      11.53173949
H       15.44560147      13.00605309      11.66574338
H       14.11416416      12.31072081      11.85464251
O       11.30072445      12.47698109       8.99663990
H       11.14163206      12.79806572       8.10904421
H       11.40883926      13.26932466       9.52269569
O        5.90013381       4.01411602       8.47317760
H        6.40094802       4.63701965       8.99987300
H        6.50352285       3.28611897       8.32426884
O        7.26738585      15.34618312       5.77885532
H        7.22495398      16.28612921       5.60297829
H        6.39153546      15.12094306       6.09251890
O       11.85856337      14.82828512      13.00366972
H       12.58759641      15.38959469      12.73971095
H       12.26294453      13.98050663      13.18800461
O        2.48124550      11.64103408       7.51713822
H        3.31852610      11.98199205       7.83168662
H        2.59734923      10.69094907       7.50763858
O       13.93804457       0.54969633      11.91442490
H       14.01976904      -0.24127440      11.38158509
H       14.83993287       0.79114684      12.12544858
O        7.86924130       4.58640646      14.24394653
H        8.51612823       4.18456037      14.82385071
H        7.50182613       5.30641810      14.75660740
O        3.63599165       5.83288292       8.09025864
H        3.93675339       6.21321321       8.91556046
H        3.47861374       4.91097970       8.29411765
O        0.95362153      14.25292219      11.75732672
H        0.78526036      15.14220648      12.06887096
H        1.48840631      13.85516180      12.44436656
O        2.55839480       2.80469032       3.09825029
H        2.32058320       3.34200018       3.85387956
H        3.15799363       3.35346954       2.59272634
O        7.11709821       4.96715988       2.38840042
H        7.51386497       4.69097330       3.21455352
H        6.73959265       4.16657362       2.02400637
O       13.13266080       0.42973497       4.02478671
H       12.68065974      -0.01734916       3.30921514
H       13.31917387      -0.26163809       4.65996228
O       13.62580453      13.78447059       5.14917021
H       14.35968409      13.33668647       5.57005263
H       13.58505557      13.40543124       4.27116079
O        2.71473039       1.79111189       5.61749863
H        2.41766525       2.69706739       5.70252079
H        1.96929421       1.32911571       5.23394124
O        7.34108196      12.81836743      11.17867438
H        7.94205427      12.22591900      10.72693445
H        7.69554356      13.69195629      11.01305035
O        1.26869303       6.95279810       2.98213270
H        1.76490275       7.65739383       3.39872916
H        1.93664693       6.36699987       2.62588859
O       11.47726494       3.27466722       3.58344849
H       10.96200476       2.72035927       4.16952143
H       11.02281775       4.11709336       3.58871954
O        4.44627849       7.12833514      10.34055777
H        3.77277136       7.68740908      10.72792879
H        5.11722922       7.05542025      11.01933636
O        5.40918215       4.67415197      13.08686675
H        6.27034686       4.52533152      13.47735317
H        5.03878557       3.79783627      12.98146745
O        5.77578537       9.28730255      13.94879687
H        5.34042434       8.47021089      13.70578694
H        5.32813475       9.95969132      13.43524639
O        0.81367088       1.96886486       7.55470085
H        0.52427410       2.34477416       6.72333238
H        1.17865520       1.11611998       7.31838655
O        2.40193475       8.25964051       8.00121667
H        1.84645345       8.26184946       8.78074697
H        2.67671078       7.34779824       7.90491689
O       15.07138293      10.18566718       4.21489892
H       15.40576997      10.79111803       4.87659855
H       15.00861184      10.71200329       3.41786572
O        6.68682904       2.19819536       5.42665441
H        5.90911679       2.10968439       4.87569044
H        7.09233176       3.01641843       5.13975653
O        4.66153449       0.05385797       6.38580780
H        4.56466578      -0.31773184       5.50901289
H        4.13746230       0.85460838       6.36634060
O        9.82645226       1.73830372       5.54948268
H        9.89356682       0.87384185       5.14397912
H       10.65394865       1.84860471       6.01779375
O        7.95869845      13.09419033       2.91728153
H        7.93632522      12.13811538       2.87663726
H        7.13587989      13.37085998       2.51397596
O        0.46291760       3.63515688       9.67574928
H        0.58539437       3.07575326       8.90874284
H        0.55957782       3.04365485      10.42208299
O       14.65764254       0.98694005       9.19140184
H       14.63346872       1.12055311      10.13892229
H       15.55380703       1.21067507       8.94027697
O        9.62400516      14.52512597       4.61245895
H        9.38262395      13.77307187       4.07173575
H        8.79668075      14.82577449       4.98845978
O        7.95426750       9.19347101      15.57480042
H        7.25781861       9.04746232      14.93458776
H        8.52728757       8.43214670      15.48388771
O        5.49822076      13.19233190       1.75005345
H        4.81842042      12.66722396       2.17238623
H        5.18886281      14.09462385       1.83004553
O        5.59045746      10.17159495       4.05475181
H        6.34503334       9.98938908       3.49470886
H        5.73425537      11.06452615       4.36816506
O        7.64833297       1.73290366       7.98854202
H        7.91483170       0.82344239       8.12304280
H        7.50205559       1.80311223       7.04519398
O       11.88716746      12.74998469      15.29184004
H       11.46631433      12.20949391      15.96040880
H       11.63610434      13.64634665      15.51485213
O       11.03597926       5.54466757       5.94271252
H       11.97571013       5.72605762       5.92737017
H       10.72605978       5.81063147       5.07700763
O        2.58284956      15.51399995      14.01282345
H        2.25710855      15.40522889      14.90629616
H        1.87122112      15.95642049      13.55013470
O       12.33576794       9.19830571      15.30950928
H       12.35629882       9.27078846      16.26374016
H       12.38913160       8.25791713      15.13905849
O       15.72450712      12.08976257       6.45419305
H       15.80044743      12.01478041       7.40542519
H       16.55716303      12.47146880       6.17631478
O        2.82108104      13.76497513       1.68569279
H        2.42427590      14.63460358       1.73593110
H        3.02335423      13.64673217       0.75761090
O        2.25731505      13.17895492       5.28485391
H        2.72507838      12.76349373       6.00929942
H        2.36547932      12.57399914       4.55098687
O       13.67699527       4.75414981      10.63127526
H       13.88038464       5.49237856      10.05692092
H       14.42890038       4.16821488      10.54437986
O       10.39352073      10.61731516       3.01828090
H       10.87511832       9.99568725       2.47250225
H       11.03675230      10.92414409       3.65729655
O        0.53179894       8.63058555       9.95851416
H        0.40615085       9.54600031       9.70859374
H        0.10372632       8.55368172      10.81119902
O        9.09251396       3.98376316       7.49218244
H        9.13750309       3.13765427       7.04686506
H        9.49510753       4.59915558       6.87944888
O       11.41804849      14.85056356      10.31966041
H       11.35147771      14.59505596      11.23972347
H       11.15545082      15.77094570      10.30658255
O       10.84812738       1.63684673      11.01121048
H       10.13627646       2.27089534      11.09771172
H       11.59899291       2.06086316      11.42671363
O       11.47276243       4.40003639       9.07726693
H       12.34426547       4.50573373       9.45876709
H       11.53959604       3.60969725       8.54142259
O        0.71252812       8.94543536       0.95104129
H        1.43483253       8.67564321       0.38383729
H        0.68098390       8.27586498       1.63435111
O       14.92890856       1.71709993       2.43904159
H       15.53823594       0.99835800       2.27063129
H       14.24759068       1.33025877       2.98894313
O       15.74540314       7.35626456       5.90354706
H       16.15705533       7.22330981       5.04967509
H       16.47470062       7.54064067       6.49546130
O        4.28608310       1.64738786      14.92342916
H        3.68737545       2.36921005      14.73171655
H        3.73062691       0.86783967      14.92121985
O       11.95816074       3.66881580      12.43849198
H       12.53465037       4.05518006      11.77923922
H       11.32329056       4.35757381      12.63542881
O        3.13233981      11.18149510      11.34231072
H        3.11921948      11.83208884      12.04429895
H        4.02322055      10.83166998      11.35593906
O        1.14370473      14.30044077       9.04431284
H        0.72234642      13.46047981       8.86222877
H        1.14138017      14.36811174       9.99911495
O        6.20743047      13.12207168      14.90694613
H        6.26705636      12.17707827      14.76671761
H        5.87502397      13.21164997      15.80009420
O        2.04741277       8.53050528      14.39959796
H        2.77946547       8.03962575      14.02627778
H        1.30458284       7.92891717      14.34932580
O       14.20639204       7.02298607      12.23304015
H       13.95167446       6.17147299      11.87768643
H       13.94064228       7.65213393      11.56238235
O       13.87315975       6.76119068       8.63994937
H       14.56811939       7.32777465       8.97498004
H       13.11859550       7.34132403       8.53841147
O       14.21146572       5.93762621       0.41384130
H       14.16883946       5.00128913       0.21970805
H       13.76279819       6.35575729      -0.32107072
O        0.44063177      11.26173106       9.27503275
H        0.54749077      11.58166213      10.17083245
H        1.24875845      11.51803778       8.83065680
O       14.64530423       4.89494062       3.15832481
H       14.73763738       3.94766549       3.05646088
H       14.38880201       5.20580303       2.29010651
O        8.27980354       8.99223126      12.88184434
H        7.32594670       8.98173803      12.96108367
H        8.47643432       9.82897067      12.46061360
O        0.78291428       1.17634888      12.57307773
H        0.96296409       1.24919863      11.63579079
H        0.40457448       2.02272673      12.81126963
O       10.17146263       1.73464715      13.64707766
H       10.77252894       2.37002043      13.25816645
H        9.69623394       1.36667402      12.90210430
O       12.22109811      12.17689366      12.51673982
H       12.30223153      11.94327758      13.44144125
H       12.11130371      11.33942820      12.06637483
O        7.42354573      10.56109442       2.08333292
H        7.66102661      10.05271541       1.30784246
H        6.61990352      11.01753470       1.83422790
O        5.20052359       2.00535870      10.16841786
H        5.95652951       1.62155303      10.61269265
H        4.52898904       2.06741821      10.84769822
O        8.79873832      15.43660400       9.31375673
H        9.60038167      14.94831221       9.50129580
H        8.19044840      14.77891761       8.97661605
O        3.30012307       3.13998094       8.27430313
H        3.06929358       2.52757442       7.57579913
H        3.94753002       2.67079955       8.80057769
O       12.77581530       9.60673221       2.18055708
H       13.43723252       8.91568892       2.21546100
H       13.27227818      10.40528441       2.00147375
O        9.08402332      11.17699387       9.88785070
H        9.61652716      11.83211737       9.43675791
H        9.52484131      11.04609285      10.72736023
O       14.27036956       3.22201115       0.27110834
H       14.43497476       2.69010616       1.04970583
H       13.76990435       2.64888487      -0.30966069
O        2.36260633       1.03842992       9.72445662
H        2.17417570       0.13815793       9.45943573
H        1.88667175       1.57884573       9.09384670
O       10.37183036      10.59100917       6.35508280
H       10.67085066      11.48288860       6.53219796
H        9.48987931      10.55559572       6.72540708
O        0.14053886       2.32891139       4.89608362
H        0.58895012       3.17456936       4.89141505
H        0.40741456       1.91123803       4.07720746
O        1.75757922       5.94153243      11.50147145
H        2.61387957       6.16546570      11.13700548
H        1.44238993       5.22479856      10.95085350
O       10.18723002       5.57826653      13.22350965
H       10.12304517       6.39737020      12.73240751
H        9.28889187       5.39047218      13.49545393
O       14.18033435       4.40941384       6.34650419
H       14.78874122       4.76556332       6.99398428
H       14.68463361       3.73784770       5.88725152
O        3.20488650       2.27285692      11.99715437
H        3.46818536       1.41773672      12.33726464
H        2.98928018       2.78507687      12.77649799
O        1.25614806       4.73748670       0.61493064
H        1.80231172       4.36863270      -0.07924789
H        0.43959651       4.24025841       0.56760796
O       10.93767274      15.53751610      15.46279602
H       10.75727685      16.20125487      14.79710840
H       10.67103878      15.94529846      16.28672060
O       11.72688706       8.75237030       4.54602771
H       12.17165277       9.24779052       3.85829658
H       11.13274756       9.38422798       4.95097950
O       15.53514992      14.33115459      14.19727397
H       14.58434851      14.44003435      14.17846633
H       15.68865797      13.68014309      14.88200104
O        5.68833619       3.35589318       0.72681521
H        5.09331432       2.72368441       0.32371115
H        6.36402723       3.50501155       0.06542487
O        7.36907374       0.35658815       1.43189056
H        7.53708794      -0.43572725       1.94202718
H        8.23796208       0.71783013       1.25647923
O        5.31306619      14.48436267      11.89267188
H        4.54450077      14.09485487      12.30959239
H        5.81675263      13.73645724      11.57147212
O       11.58786538       9.57025754      11.68021474
H       10.93089003       9.79421911      12.33934784
H       11.07894085       9.28481916      10.92143111
O       11.40982099       1.77881946       8.35361110
H       10.54446022       1.89721692       7.96199316
H       11.25052970       1.79579375       9.29731126
O        4.18388459       7.09514919      13.49161585
H        3.80111879       7.01727529      12.61774067
H        4.72159469       6.30926329      13.58899672
O        7.67625992      15.10432381      13.76169123
H        7.35328314      14.47051186      14.40216001
H        7.06514560      15.03683227      13.02805916
O        9.93463404      10.88501880      13.92185437
H       10.57578845      11.37173331      14.43979437
H        9.42314330      10.39872577      14.56848266
