391
Lattice="15.781866235591567 0.0 0.0 0.0 15.781866235591567 0.0 0.0 0.0 15.781866235591567" Properties=species:S:1:pos:R:3 charge=0 spin=1 spin_multiplicity=1 metal=La geometry=box boundary=pbc pbc="T T T"
La       7.89093312       7.89093312       7.89093312
O        6.75340173       5.81013818       7.52172485
H        6.95188878       4.92773749       7.85529330
O        8.73407922       9.14492857       6.02636881
H        8.55106776      10.05197317       5.75604882
O        8.18531840       8.71773260      10.12470569
H        8.99365008       8.87259336      10.62661608
O        9.13904538       6.41193899       6.24582153
H        8.94746240       6.27627319       5.31785461
H        9.90641328       5.86530837       6.41485795
O        6.17975578       8.06938002       6.02234306
H        5.95970665       8.84153029       5.50119607
H        5.61039666       7.37955170       5.68146343
O       10.26524060       8.69874730       8.29305279
H       10.70911349       8.81837616       9.13263461
H       10.91669423       8.95178300       7.63897868
O        7.30595100      10.35618833       8.06957432
H        7.81961619      11.05200103       8.47972623
H        6.52241916      10.79765856       7.74183399
O        8.70744777       6.07595152       9.46914274
H        9.02015568       5.20000959       9.24293192
H        8.77141819       6.11459775      10.42342053
O        5.74815817       7.73339255       9.24566427
H        4.84872172       7.82992364       8.93273034
H        5.65907978       7.56418412      10.18356906
O       10.64482804       8.44076985       4.20662739
H       10.18354741       8.91248336       3.51313017
H        9.99467686       8.34020092       4.90191235
O        3.78165507       1.86327120       0.42803921
H        4.67615787       1.58916886       0.22564234
H        3.88537117       2.56625255       1.06935975
O        3.67182479       6.52388369       1.33719797
H        3.49084761       5.64054055       1.65842061
H        4.61905823       6.54011923       1.20038766
O       14.34979812      10.31245545      14.14689647
H       14.11706734      10.66373318      13.28743607
H       15.28427406      10.11593762      14.08081093
O        3.35149404       7.87952817       7.96775763
H        2.69989608       7.67023366       7.29854335
H        2.88121436       7.79065337       8.79671489
O        1.81490656       4.88978828       5.22361423
H        2.72481393       5.07785573       5.45368170
H        1.35961725       5.72302904       5.34466513
O        0.54793495       0.21923295      12.34485720
H        0.69407158       0.96931111      11.76843836
H        1.05645408      -0.48928014      11.95033302
O        6.72157981       9.40038408      12.52332770
H        7.00744487       8.76331509      13.17804604
H        7.23184099       9.18703828      11.74207938
O       11.41003740       3.70012333       1.81479356
H       10.70880372       3.71876870       1.16352134
H       11.68212650       4.61380713       1.90070799
O        6.70139988      14.43219535      14.19929510
H        5.88692538      13.95088187      14.05369133
H        7.30524331      14.08650027      13.54195207
O       15.35201383       6.39048006       9.62570959
H       15.56414840       7.31946569       9.71635427
H       14.47043519       6.38088610       9.25293766
O        1.44955501       2.52415690      10.19221894
H        1.91827831       3.29614378      10.50934126
H        0.56529933       2.83991506      10.00615299
O       12.84557796       0.27058186       5.83914985
H       12.17311558       0.42427597       5.17552020
H       13.65643098       0.57983133       5.43527613
O        6.33240464       6.69698871       0.76780075
H        6.91249989       6.90227644       1.50099806
H        6.90029188       6.72366645      -0.00227990
O       11.47247903       3.96024227       7.96844526
H       12.24599378       3.67347649       7.48298449
H       11.62513781       4.89031069       8.13547786
O       11.59423752       1.11570799       2.76394732
H       11.15063988       1.05235643       3.60978392
H       11.58809700       2.05072781       2.55917407
O        4.88441615      14.66532585       2.11368119
H        4.49091742      13.93980732       2.59846304
H        4.20348644      14.94132718       1.50017501
O        0.72195684      15.47502546       8.75122445
H        1.55416142      15.00469649       8.80080310
H        0.87969287      16.29235517       9.22379544
O       10.22524176      10.58002217       1.41803453
H        9.68701196      10.01854238       1.97596011
H       10.68108681      11.15911855       2.02884097
O        4.30259930      13.16510098      14.00211651
H        3.67158792      12.44785206      14.06220351
H        3.87946596      13.89545019      14.45353654
O        5.77938212      11.16379686      15.10316900
H        5.38355418      11.99329675      14.83580780
H        5.83730067      10.65403877      14.29507001
O        2.23431014       0.26256090       5.02686459
H        1.87046570      -0.40403959       4.44420445
H        2.90309966      -0.19958276       5.53221166
O       13.12352208       0.02590550       8.87530200
H       13.71435738      -0.71904877       8.98570412
H       13.06500880       0.14741813       7.92765084
O        0.30485012       5.98473769       2.52980586
H        0.75375169       5.59418527       3.27959785
H        0.15031683       6.89309767       2.78910001
O        0.12965467      14.10454045       6.39977262
H        0.37191969      14.59461576       7.18549884
H        0.92579916      14.09405171       5.86847630
O       15.44432019       0.28243117       4.14167783
H       15.62024078      -0.41993300       4.76775159
H       15.16055325      -0.16977685       3.34718675
O        2.69795488      10.32930495       6.98293262
H        2.41530747       9.49461904       6.60924596
H        2.76684677      10.16049827       7.92260812
O       10.06667599      11.19113974       9.77123153
H        9.85516010      11.74998337      10.51901938
H        9.32232086      10.59355687       9.70008393
O        8.64475974      11.98613310       4.60008558
H        9.42568560      11.65064671       5.04035314
H        8.51093419      11.39114500       3.86231074
O       13.86392000       9.97570634       1.86756659
H       13.48304544       9.54231474       1.10380084
H       13.31494548      10.74788766       2.00392945
O       15.43284817       9.57117742       7.37734254
H       15.19928296      10.14316194       8.10844639
H       16.37042331       9.71565688       7.24963041
O       11.35185038      10.87609015       5.19036332
H       10.95655053      10.02986756       4.98089447
H       11.59394197      11.24475030       4.34082627
O        2.28024648      15.08509015      15.08282446
H        2.89619497      15.81486282      15.01747048
H        1.77862149      15.26490763      15.87797846
O        4.82345181       3.07715678      14.00997281
H        3.87866647       3.23065129      14.00276683
H        5.20782235       3.95018239      14.08945494
O        9.05463854       1.81360114      12.17160075
H        8.18899435       2.19904528      12.03623162
H        8.88082689       0.88871571      12.34655298
O        4.52904603       1.54750807       9.59753809
H        4.45383294       0.59336548       9.58387259
H        3.65027813       1.85433785       9.82081888
O       12.44783615      11.48167302       8.45744090
H       12.18296468      12.09286822       7.77004336
H       11.63885494      11.28773800       8.93090731
O       12.78877742       2.44849258      10.13452128
H       13.02128959       1.61157902       9.73234519
H       12.47201434       2.98438639       9.40739624
O       15.37984381       9.02360481       3.95942927
H       16.12536936       8.74958604       3.42525962
H       14.75432195       9.38463401       3.33124764
O       10.38934305      14.44424100       3.30792574
H       10.77395550      15.10419542       2.73106763
H       10.50549082      14.79892984       4.18936624
O        0.12429878      12.09627279      12.49520507
H       -0.08039470      12.77197135      13.14155162
H       -0.71083582      11.91628268      12.06348109
O        4.25274513       9.83852723      10.10019722
H        3.32829113      10.05076207      10.22893348
H        4.72482094      10.55086423      10.53141906
O        4.66623220      10.67847880       1.90653284
H        5.03991611      10.80715248       1.03473283
H        5.26681504      11.13593337       2.49497773
O       12.01223934       6.61597244       8.20115987
H       12.25753480       7.49650920       7.91705251
H       11.65190867       6.73883503       9.07939585
O        7.61814215       3.50545266       8.67889754
H        8.25716793       3.27997213       8.00285285
H        7.88143765       2.98823495       9.44007634
O        3.22110106       3.94740071       2.08351008
H        3.41484702       3.53122235       2.92344455
H        2.27011356       3.88159014       1.99677152
O        4.59283015       7.17877802      11.67128553
H        3.94954149       6.60201502      11.25927101
H        5.10457178       6.60149903      12.23794355
O       10.35575170       7.65348822       0.52200018
H        9.81879099       8.26925993       1.02072881
H       11.09400471       8.17684952       0.21005904
O        1.18635291      13.93285494       3.23385494
H        0.84254048      13.47588410       4.00145021
H        1.06387172      13.31582667       2.51239370
O        1.86879499       7.80181610      15.53338686
H        2.30544437       7.24286128      16.17614549
H        1.92101401       7.31070220      14.71344043
O        4.21505232       0.37153469      12.57394215
H        4.28482316       0.75513090      11.69974663
H        4.52160998       1.06050123      13.16350076
O       12.44426456       6.19228737       1.47143673
H       11.63946796       6.68423047       1.30856789
H       12.63546367       5.76218296       0.63795912
O       12.73893164       9.19016576       7.02028782
H       13.67306337       9.39065254       6.96168066
H       12.32736783       9.77635592       6.38528532
O       14.86603899       2.94988977       0.16789299
H       14.91291934       2.73746337       1.10004593
H       14.38438725       2.21967204      -0.22072701
O        6.41599178       1.49389436      15.64226079
H        6.64037827       0.62412942      15.31151693
H        6.35460191       2.04015527      14.85863963
O        8.64216079       5.85456849       3.11097238
H        8.05420928       5.11438535       2.96039416
H        9.32467669       5.75787817       2.44685276
O       15.49175843      11.63217212       0.45170524
H       16.22588572      11.40048495       1.02057255
H       14.76094122      11.10644858       0.77690181
O        2.49496340      13.73812162      11.17719745
H        3.28022864      13.19252158      11.22091177
H        1.84625792      13.26742165      11.70050861
O        8.81747100       2.71372493       3.22620612
H        8.72494095       1.76367346       3.15498660
H        9.63547977       2.91008106       2.76954677
O        7.55933180      11.62928104       1.71008062
H        8.40498960      11.32012474       1.38524663
H        6.96590587      11.53150195       0.96542180
O        3.49061074      13.55498385       8.09370998
H        2.76023875      13.90717217       7.58503327
H        3.19375272      13.59985260       9.00260709
O       11.23543036       5.33639522      13.00515306
H       10.72216090       4.87040880      12.34512051
H       10.76099906       5.19222924      13.82391001
O        3.88096948       2.69770674       4.51198041
H        3.31268047       1.92827967       4.54749688
H        4.15703684       2.83419593       5.41828574
O        8.94882368      14.37603283       5.94629618
H        9.77189622      13.97611362       6.22709516
H        8.69804556      13.88494672       5.16387903
O        5.81313808      14.34472248      10.39035639
H        6.54670825      14.14397702       9.80914394
H        6.21158122      14.44050265      11.25540035
O        3.30118631      12.18556829       3.86530148
H        2.59498746      12.78857875       3.63315195
H        2.99854746      11.75877973       4.66685815
O       12.03099431      12.32778684       2.45869648
H       11.31441507      12.94781104       2.59403316
H       12.69502156      12.58511858       3.09829011
O        6.69645485       4.15147259       2.18024742
H        6.67582723       4.93638936       1.63278783
H        7.44472427       3.65126638       1.85448914
O        8.86751632       2.52057417       0.43863125
H        8.15130581       1.91723965       0.24048533
H        9.66087552       2.03033390       0.22304486
O       13.30691582       5.55024528      14.75490052
H       12.70390146       5.44609069      14.01885885
H       13.47565991       4.65714947      15.05512901
O       12.15628346       9.56701392      15.57209637
H       11.54611410      10.10300143      16.07869540
H       12.68041264      10.19952860      15.08072520
O       10.73228284       8.07012151      10.89787546
H       10.41629067       7.98907131      11.79777082
H       10.24950910       7.40088984      10.41280813
O       12.95823485       4.03794368       4.17502693
H       12.54858146       4.85525690       4.45860238
H       12.39431089       3.71865472       3.47055821
O       10.48416895      15.30510293       8.41256380
H       11.28819283      15.64689454       8.80365961
H       10.78457126      14.66808662       7.76433504
O        9.53849800      13.27321732      11.44015448
H       10.48153096      13.43681013      11.45272712
H        9.15276764      14.06352514      11.81811939
O        4.75749081       8.05353952      14.79285843
H        4.07754857       8.61284565      15.16847398
H        5.58009664       8.45170061      15.07749719
O        5.45152901       3.38988839      11.37322385
H        5.09422326       2.65410796      10.87604017
H        5.09241944       3.28142301      12.25385284
O       11.55779400      13.27401050       6.46969383
H       11.91094282      13.76391392       5.72705502
H       11.27540615      12.43991441       6.09449703
O       11.24074266      12.13533268      14.36119836
H       11.58822655      12.29289855      15.23907066
H       10.29222830      12.09277055      14.48261014
O        1.14740343       9.61504994      13.63861146
H        1.34558852      10.14091815      12.86374558
H        1.38982883       8.72265429      13.39144398
O        4.38891898       3.16061950       7.40153649
H        5.25856315       3.09001040       7.00788026
H        4.47114414       2.71779936       8.24615545
O        1.79990191      10.48707057      11.08064997
H        1.04035868      10.75846923      10.56521939
H        2.17656412      11.30606962      11.40251635
O        8.55086753       8.72520645       2.49409639
H        8.05959903       8.78158277       1.67451796
H        8.68555283       7.78719866       2.62912640
O       14.81220684       6.93112079       5.60192120
H       13.89333311       7.04798311       5.84326351
H       15.00334159       7.66762708       5.02118217
O       12.94679641       0.71027255      12.97683036
H       12.32856087       0.79013643      12.25044313
H       13.56438545       1.42988675      12.84655750
O        8.08072903       0.09524242       3.18305951
H        7.48000006      -0.58016694       2.86813294
H        8.93222227      -0.34025327       3.22223361
O        9.76792870       5.04951105       0.00030383
H        8.98166561       4.82526274       0.49803356
H       10.01169687       5.91968535       0.31590739
O       10.27889647       0.82061721       5.12640354
H        9.35560738       0.73189755       4.88997615
H       10.36712251       0.32390669       5.93986938
O       13.77771328      13.94657248       3.77281038
H       13.68384195      14.27317785       2.87796461
H       13.67359173      14.72245314       4.32362772
O       11.17723665       1.18122239      15.70115032
H       11.95042124       0.80640507      15.27933355
H       11.34138548       1.07783646      16.63848609
O        6.40353227      13.44282527       6.16769118
H        7.04465456      12.96625465       5.64036350
H        6.02618013      14.08382349       5.56523082
O       13.85159932       6.58878321      12.02896069
H       14.36579319       6.54914358      11.22257046
H       13.20391499       5.89025579      11.93517211
O        9.68287523       9.51825180      14.44149042
H       10.17413697       9.82806734      13.68063033
H        9.31584742       8.67870490      14.16457270
O        7.71322345      13.78084116       8.52753290
H        7.32137546      13.87083790       7.65886290
H        8.60172336      14.12231563       8.42656296
O        3.73272984       8.31905535       3.87854541
H        3.62196681       7.78682316       3.09070514
H        3.03397637       8.02847267       4.46466582
O        7.39044189       9.10161968       0.06301697
H        7.77731420       9.91644636      -0.25732527
H        7.68133306       8.43636830      -0.56072558
O       13.55655364      11.02251952      11.64385342
H       12.95838409      10.44932424      11.16440352
H       13.19516627      11.90072739      11.52392861
O        1.60915832       6.54787895      12.96553212
H        0.74101013       6.64526319      12.57429450
H        2.13042424       6.11630954      12.28858196
O        9.33411191       2.84865147       6.67329041
H        9.60208302       2.33664189       5.91022454
H       10.11635571       3.34358526       6.91694388
O       14.95717599      13.74366064      14.44044281
H       15.18028764      13.03464183      15.04355586
H       15.63867453      14.40109710      14.58033166
O        6.90121361       3.48106091       5.32796244
H        7.16282962       3.30665051       4.42387732
H        7.68504210       3.29474361       5.84480924
O       15.37250175      11.10819786       9.62062771
H       14.68031057      10.95235068      10.26313442
H       15.08728093      11.88840585       9.14506866
O       14.97140235       7.67657508      15.08140638
H       14.54797214       6.81968260      15.13311691
H       15.82303261       7.54904794      15.49937119
O       14.79305128       3.17597197      12.39645816
H       14.12277368       2.94080435      11.75485396
H       15.37354772       2.41548824      12.42679328
O        1.38808093       4.60326273      14.85468383
H        0.47157835       4.36578767      14.99561099
H        1.35679941       5.30621165      14.20574922
O        0.78907150      11.43590925       4.59036662
H        0.37267267      10.64900627       4.23875952
H        1.10640707      11.17377304       5.45455097
O        5.98837791       0.94639888       7.38226876
H        5.70564562       1.24190616       8.24769914
H        5.51656586       0.12527153       7.24307426
O        1.50758189       8.00427385       5.93366465
H        0.80753016       7.55646710       6.40866835
H        1.05225963       8.54046645       5.28450290
O        4.83201305       5.22673177       5.68697622
H        4.38456368       4.76607403       6.39677574
H        5.55620244       4.64939863       5.44517463
O        5.02566421      12.01054608      11.54355342
H        4.73074789      12.47108998      12.32914589
H        5.34526737      12.70303810      10.96515869
O        2.77907969       5.15456051      10.91729427
H        2.69311134       5.28128904       9.97242329
H        3.59783427       4.66964554      11.02088113
O        0.90872805       0.20332884       1.47055551
H        0.64489618       0.91842604       2.04957242
H        1.07296684      -0.53366366       2.05885774
O        5.84620172       5.58170328      13.72778275
H        5.31637837       6.28381918      14.10534375
H        6.75065177       5.86501755      13.86170427
O        8.39316384      11.88072225      14.83368517
H        7.77168967      12.60863752      14.84556163
H        8.32454365      11.52098502      13.94931408
O        1.84585375      10.70138905       1.90693574
H        1.57176799      11.08312597       2.74083367
H        2.80132317      10.67451846       1.95780803
O        9.80630284      13.22635584       0.94673543
H        9.40780280      14.09643985       0.96631546
H        9.31971959      12.75469718       0.27071273
O       14.87360027       2.61671673       2.86739995
H       15.14181268       1.86345030       3.39359729
H       14.33895922       3.14521583       3.45991955
O        8.24216326       7.09841511      14.20106607
H        8.33594425       7.03060053      13.25088812
H        8.87518264       6.47095763      14.55008671
O        0.00130513       3.13907697       7.03018711
H        0.58973234       3.62787337       6.45480607
H       -0.83506909       3.60011722       6.96575193
O       12.26844507      13.60007716      11.25415829
H       12.47338081      14.04153589      12.07838360
H       12.58534667      14.19745283      10.57670163
O        3.22092290      10.28272637      15.37962475
H        2.51677600      10.28340413      14.73123557
H        3.96758244      10.67084411      14.92344935
O       13.73416873       0.02570402       1.48684683
H       14.68734602       0.10161225       1.44299666
H       13.47582133      -0.26224345       0.61130430
391
Properties=species:S:1:pos:R:3 charge=0 spin=1 spin_multiplicity=1 metal=La geometry=box boundary=non-pbc pbc="F F F"
La       7.89093312       7.89093312       7.89093312
O        6.75340173       5.81013818       7.52172485
H        6.95188878       4.92773749       7.85529330
O        8.73407922       9.14492857       6.02636881
H        8.55106776      10.05197317       5.75604882
O        8.18531840       8.71773260      10.12470569
H        8.99365008       8.87259336      10.62661608
O        9.13904538       6.41193899       6.24582153
H        8.94746240       6.27627319       5.31785461
H        9.90641328       5.86530837       6.41485795
O        6.17975578       8.06938002       6.02234306
H        5.95970665       8.84153029       5.50119607
H        5.61039666       7.37955170       5.68146343
O       10.26524060       8.69874730       8.29305279
H       10.70911349       8.81837616       9.13263461
H       10.91669423       8.95178300       7.63897868
O        7.30595100      10.35618833       8.06957432
H        7.81961619      11.05200103       8.47972623
H        6.52241916      10.79765856       7.74183399
O        8.70744777       6.07595152       9.46914274
H        9.02015568       5.20000959       9.24293192
H        8.77141819       6.11459775      10.42342053
O        5.74815817       7.73339255       9.24566427
H        4.84872172       7.82992364       8.93273034
H        5.65907978       7.56418412      10.18356906
O       10.64482804       8.44076985       4.20662739
H       10.18354741       8.91248336       3.51313017
H        9.99467686       8.34020092       4.90191235
O        3.78165507       1.86327120       0.42803921
H        4.67615787       1.58916886       0.22564234
H        3.88537117       2.56625255       1.06935975
O        3.67182479       6.52388369       1.33719797
H        3.49084761       5.64054055       1.65842061
H        4.61905823       6.54011923       1.20038766
O       14.34979812      10.31245545      14.14689647
H       14.11706734      10.66373318      13.28743607
H       15.28427406      10.11593762      14.08081093
O        3.35149404       7.87952817       7.96775763
H        2.69989608       7.67023366       7.29854335
H        2.88121436       7.79065337       8.79671489
O        1.81490656       4.88978828       5.22361423
H        2.72481393       5.07785573       5.45368170
H        1.35961725       5.72302904       5.34466513
O        0.54793495       0.21923295      12.34485720
H        0.69407158       0.96931111      11.76843836
H        1.05645408      -0.48928014      11.95033302
O        6.72157981       9.40038408      12.52332770
H        7.00744487       8.76331509      13.17804604
H        7.23184099       9.18703828      11.74207938
O       11.41003740       3.70012333       1.81479356
H       10.70880372       3.71876870       1.16352134
H       11.68212650       4.61380713       1.90070799
O        6.70139988      14.43219535      14.19929510
H        5.88692538      13.95088187      14.05369133
H        7.30524331      14.08650027      13.54195207
O       15.35201383       6.39048006       9.62570959
H       15.56414840       7.31946569       9.71635427
H       14.47043519       6.38088610       9.25293766
O        1.44955501       2.52415690      10.19221894
H        1.91827831       3.29614378      10.50934126
H        0.56529933       2.83991506      10.00615299
O       12.84557796       0.27058186       5.83914985
H       12.17311558       0.42427597       5.17552020
H       13.65643098       0.57983133       5.43527613
O        6.33240464       6.69698871       0.76780075
H        6.91249989       6.90227644       1.50099806
H        6.90029188       6.72366645      -0.00227990
O       11.47247903       3.96024227       7.96844526
H       12.24599378       3.67347649       7.48298449
H       11.62513781       4.89031069       8.13547786
O       11.59423752       1.11570799       2.76394732
H       11.15063988       1.05235643       3.60978392
H       11.58809700       2.05072781       2.55917407
O        4.88441615      14.66532585       2.11368119
H        4.49091742      13.93980732       2.59846304
H        4.20348644      14.94132718       1.50017501
O        0.72195684      15.47502546       8.75122445
H        1.55416142      15.00469649       8.80080310
H        0.87969287      16.29235517       9.22379544
O       10.22524176      10.58002217       1.41803453
H        9.68701196      10.01854238       1.97596011
H       10.68108681      11.15911855       2.02884097
O        4.30259930      13.16510098      14.00211651
H        3.67158792      12.44785206      14.06220351
H        3.87946596      13.89545019      14.45353654
O        5.77938212      11.16379686      15.10316900
H        5.38355418      11.99329675      14.83580780
H        5.83730067      10.65403877      14.29507001
O        2.23431014       0.26256090       5.02686459
H        1.87046570      -0.40403959       4.44420445
H        2.90309966      -0.19958276       5.53221166
O       13.12352208       0.02590550       8.87530200
H       13.71435738      -0.71904877       8.98570412
H       13.06500880       0.14741813       7.92765084
O        0.30485012       5.98473769       2.52980586
H        0.75375169       5.59418527       3.27959785
H        0.15031683       6.89309767       2.78910001
O        0.12965467      14.10454045       6.39977262
H        0.37191969      14.59461576       7.18549884
H        0.92579916      14.09405171       5.86847630
O       15.44432019       0.28243117       4.14167783
H       15.62024078      -0.41993300       4.76775159
H       15.16055325      -0.16977685       3.34718675
O        2.69795488      10.32930495       6.98293262
H        2.41530747       9.49461904       6.60924596
H        2.76684677      10.16049827       7.92260812
O       10.06667599      11.19113974       9.77123153
H        9.85516010      11.74998337      10.51901938
H        9.32232086      10.59355687       9.70008393
O        8.64475974      11.98613310       4.60008558
H        9.42568560      11.65064671       5.04035314
H        8.51093419      11.39114500       3.86231074
O       13.86392000       9.97570634       1.86756659
H       13.48304544       9.54231474       1.10380084
H       13.31494548      10.74788766       2.00392945
O       15.43284817       9.57117742       7.37734254
H       15.19928296      10.14316194       8.10844639
H       16.37042331       9.71565688       7.24963041
O       11.35185038      10.87609015       5.19036332
H       10.95655053      10.02986756       4.98089447
H       11.59394197      11.24475030       4.34082627
O        2.28024648      15.08509015      15.08282446
H        2.89619497      15.81486282      15.01747048
H        1.77862149      15.26490763      15.87797846
O        4.82345181       3.07715678      14.00997281
H        3.87866647       3.23065129      14.00276683
H        5.20782235       3.95018239      14.08945494
O        9.05463854       1.81360114      12.17160075
H        8.18899435       2.19904528      12.03623162
H        8.88082689       0.88871571      12.34655298
O        4.52904603       1.54750807       9.59753809
H        4.45383294       0.59336548       9.58387259
H        3.65027813       1.85433785       9.82081888
O       12.44783615      11.48167302       8.45744090
H       12.18296468      12.09286822       7.77004336
H       11.63885494      11.28773800       8.93090731
O       12.78877742       2.44849258      10.13452128
H       13.02128959       1.61157902       9.73234519
H       12.47201434       2.98438639       9.40739624
O       15.37984381       9.02360481       3.95942927
H       16.12536936       8.74958604       3.42525962
H       14.75432195       9.38463401       3.33124764
O       10.38934305      14.44424100       3.30792574
H       10.77395550      15.10419542       2.73106763
H       10.50549082      14.79892984       4.18936624
O        0.12429878      12.09627279      12.49520507
H       -0.08039470      12.77197135      13.14155162
H       -0.71083582      11.91628268      12.06348109
O        4.25274513       9.83852723      10.10019722
H        3.32829113      10.05076207      10.22893348
H        4.72482094      10.55086423      10.53141906
O        4.66623220      10.67847880       1.90653284
H        5.03991611      10.80715248       1.03473283
H        5.26681504      11.13593337       2.49497773
O       12.01223934       6.61597244       8.20115987
H       12.25753480       7.49650920       7.91705251
H       11.65190867       6.73883503       9.07939585
O        7.61814215       3.50545266       8.67889754
H        8.25716793       3.27997213       8.00285285
H        7.88143765       2.98823495       9.44007634
O        3.22110106       3.94740071       2.08351008
H        3.41484702       3.53122235       2.92344455
H        2.27011356       3.88159014       1.99677152
O        4.59283015       7.17877802      11.67128553
H        3.94954149       6.60201502      11.25927101
H        5.10457178       6.60149903      12.23794355
O       10.35575170       7.65348822       0.52200018
H        9.81879099       8.26925993       1.02072881
H       11.09400471       8.17684952       0.21005904
O        1.18635291      13.93285494       3.23385494
H        0.84254048      13.47588410       4.00145021
H        1.06387172      13.31582667       2.51239370
O        1.86879499       7.80181610      15.53338686
H        2.30544437       7.24286128      16.17614549
H        1.92101401       7.31070220      14.71344043
O        4.21505232       0.37153469      12.57394215
H        4.28482316       0.75513090      11.69974663
H        4.52160998       1.06050123      13.16350076
O       12.44426456       6.19228737       1.47143673
H       11.63946796       6.68423047       1.30856789
H       12.63546367       5.76218296       0.63795912
O       12.73893164       9.19016576       7.02028782
H       13.67306337       9.39065254       6.96168066
H       12.32736783       9.77635592       6.38528532
O       14.86603899       2.94988977       0.16789299
H       14.91291934       2.73746337       1.10004593
H       14.38438725       2.21967204      -0.22072701
O        6.41599178       1.49389436      15.64226079
H        6.64037827       0.62412942      15.31151693
H        6.35460191       2.04015527      14.85863963
O        8.64216079       5.85456849       3.11097238
H        8.05420928       5.11438535       2.96039416
H        9.32467669       5.75787817       2.44685276
O       15.49175843      11.63217212       0.45170524
H       16.22588572      11.40048495       1.02057255
H       14.76094122      11.10644858       0.77690181
O        2.49496340      13.73812162      11.17719745
H        3.28022864      13.19252158      11.22091177
H        1.84625792      13.26742165      11.70050861
O        8.81747100       2.71372493       3.22620612
H        8.72494095       1.76367346       3.15498660
H        9.63547977       2.91008106       2.76954677
O        7.55933180      11.62928104       1.71008062
H        8.40498960      11.32012474       1.38524663
H        6.96590587      11.53150195       0.96542180
O        3.49061074      13.55498385       8.09370998
H        2.76023875      13.90717217       7.58503327
H        3.19375272      13.59985260       9.00260709
O       11.23543036       5.33639522      13.00515306
H       10.72216090       4.87040880      12.34512051
H       10.76099906       5.19222924      13.82391001
O        3.88096948       2.69770674       4.51198041
H        3.31268047       1.92827967       4.54749688
H        4.15703684       2.83419593       5.41828574
O        8.94882368      14.37603283       5.94629618
H        9.77189622      13.97611362       6.22709516
H        8.69804556      13.88494672       5.16387903
O        5.81313808      14.34472248      10.39035639
H        6.54670825      14.14397702       9.80914394
H        6.21158122      14.44050265      11.25540035
O        3.30118631      12.18556829       3.86530148
H        2.59498746      12.78857875       3.63315195
H        2.99854746      11.75877973       4.66685815
O       12.03099431      12.32778684       2.45869648
H       11.31441507      12.94781104       2.59403316
H       12.69502156      12.58511858       3.09829011
O        6.69645485       4.15147259       2.18024742
H        6.67582723       4.93638936       1.63278783
H        7.44472427       3.65126638       1.85448914
O        8.86751632       2.52057417       0.43863125
H        8.15130581       1.91723965       0.24048533
H        9.66087552       2.03033390       0.22304486
O       13.30691582       5.55024528      14.75490052
H       12.70390146       5.44609069      14.01885885
H       13.47565991       4.65714947      15.05512901
O       12.15628346       9.56701392      15.57209637
H       11.54611410      10.10300143      16.07869540
H       12.68041264      10.19952860      15.08072520
O       10.73228284       8.07012151      10.89787546
H       10.41629067       7.98907131      11.79777082
H       10.24950910       7.40088984      10.41280813
O       12.95823485       4.03794368       4.17502693
H       12.54858146       4.85525690       4.45860238
H       12.39431089       3.71865472       3.47055821
O       10.48416895      15.30510293       8.41256380
H       11.28819283      15.64689454       8.80365961
H       10.78457126      14.66808662       7.76433504
O        9.53849800      13.27321732      11.44015448
H       10.48153096      13.43681013      11.45272712
H        9.15276764      14.06352514      11.81811939
O        4.75749081       8.05353952      14.79285843
H        4.07754857       8.61284565      15.16847398
H        5.58009664       8.45170061      15.07749719
O        5.45152901       3.38988839      11.37322385
H        5.09422326       2.65410796      10.87604017
H        5.09241944       3.28142301      12.25385284
O       11.55779400      13.27401050       6.46969383
H       11.91094282      13.76391392       5.72705502
H       11.27540615      12.43991441       6.09449703
O       11.24074266      12.13533268      14.36119836
H       11.58822655      12.29289855      15.23907066
H       10.29222830      12.09277055      14.48261014
O        1.14740343       9.61504994      13.63861146
H        1.34558852      10.14091815      12.86374558
H        1.38982883       8.72265429      13.39144398
O        4.38891898       3.16061950       7.40153649
H        5.25856315       3.09001040       7.00788026
H        4.47114414       2.71779936       8.24615545
O        1.79990191      10.48707057      11.08064997
H        1.04035868      10.75846923      10.56521939
H        2.17656412      11.30606962      11.40251635
O        8.55086753       8.72520645       2.49409639
H        8.05959903       8.78158277       1.67451796
H        8.68555283       7.78719866       2.62912640
O       14.81220684       6.93112079       5.60192120
H       13.89333311       7.04798311       5.84326351
H       15.00334159       7.66762708       5.02118217
O       12.94679641       0.71027255      12.97683036
H       12.32856087       0.79013643      12.25044313
H       13.56438545       1.42988675      12.84655750
O        8.08072903       0.09524242       3.18305951
H        7.48000006      -0.58016694       2.86813294
H        8.93222227      -0.34025327       3.22223361
O        9.76792870       5.04951105       0.00030383
H        8.98166561       4.82526274       0.49803356
H       10.01169687       5.91968535       0.31590739
O       10.27889647       0.82061721       5.12640354
H        9.35560738       0.73189755       4.88997615
H       10.36712251       0.32390669       5.93986938
O       13.77771328      13.94657248       3.77281038
H       13.68384195      14.27317785       2.87796461
H       13.67359173      14.72245314       4.32362772
O       11.17723665       1.18122239      15.70115032
H       11.95042124       0.80640507      15.27933355
H       11.34138548       1.07783646      16.63848609
O        6.40353227      13.44282527       6.16769118
H        7.04465456      12.96625465       5.64036350
H        6.02618013      14.08382349       5.56523082
O       13.85159932       6.58878321      12.02896069
H       14.36579319       6.54914358      11.22257046
H       13.20391499       5.89025579      11.93517211
O        9.68287523       9.51825180      14.44149042
H       10.17413697       9.82806734      13.68063033
H        9.31584742       8.67870490      14.16457270
O        7.71322345      13.78084116       8.52753290
H        7.32137546      13.87083790       7.65886290
H        8.60172336      14.12231563       8.42656296
O        3.73272984       8.31905535       3.87854541
H        3.62196681       7.78682316       3.09070514
H        3.03397637       8.02847267       4.46466582
O        7.39044189       9.10161968       0.06301697
H        7.77731420       9.91644636      -0.25732527
H        7.68133306       8.43636830      -0.56072558
O       13.55655364      11.02251952      11.64385342
H       12.95838409      10.44932424      11.16440352
H       13.19516627      11.90072739      11.52392861
O        1.60915832       6.54787895      12.96553212
H        0.74101013       6.64526319      12.57429450
H        2.13042424       6.11630954      12.28858196
O        9.33411191       2.84865147       6.67329041
H        9.60208302       2.33664189       5.91022454
H       10.11635571       3.34358526       6.91694388
O       14.95717599      13.74366064      14.44044281
H       15.18028764      13.03464183      15.04355586
H       15.63867453      14.40109710      14.58033166
O        6.90121361       3.48106091       5.32796244
H        7.16282962       3.30665051       4.42387732
H        7.68504210       3.29474361       5.84480924
O       15.37250175      11.10819786       9.62062771
H       14.68031057      10.95235068      10.26313442
H       15.08728093      11.88840585       9.14506866
O       14.97140235       7.67657508      15.08140638
H       14.54797214       6.81968260      15.13311691
H       15.82303261       7.54904794      15.49937119
O       14.79305128       3.17597197      12.39645816
H       14.12277368       2.94080435      11.75485396
H       15.37354772       2.41548824      12.42679328
O        1.38808093       4.60326273      14.85468383
H        0.47157835       4.36578767      14.99561099
H        1.35679941       5.30621165      14.20574922
O        0.78907150      11.43590925       4.59036662
H        0.37267267      10.64900627       4.23875952
H        1.10640707      11.17377304       5.45455097
O        5.98837791       0.94639888       7.38226876
H        5.70564562       1.24190616       8.24769914
H        5.51656586       0.12527153       7.24307426
O        1.50758189       8.00427385       5.93366465
H        0.80753016       7.55646710       6.40866835
H        1.05225963       8.54046645       5.28450290
O        4.83201305       5.22673177       5.68697622
H        4.38456368       4.76607403       6.39677574
H        5.55620244       4.64939863       5.44517463
O        5.02566421      12.01054608      11.54355342
H        4.73074789      12.47108998      12.32914589
H        5.34526737      12.70303810      10.96515869
O        2.77907969       5.15456051      10.91729427
H        2.69311134       5.28128904       9.97242329
H        3.59783427       4.66964554      11.02088113
O        0.90872805       0.20332884       1.47055551
H        0.64489618       0.91842604       2.04957242
H        1.07296684      -0.53366366       2.05885774
O        5.84620172       5.58170328      13.72778275
H        5.31637837       6.28381918      14.10534375
H        6.75065177       5.86501755      13.86170427
O        8.39316384      11.88072225      14.83368517
H        7.77168967      12.60863752      14.84556163
H        8.32454365      11.52098502      13.94931408
O        1.84585375      10.70138905       1.90693574
H        1.57176799      11.08312597       2.74083367
H        2.80132317      10.67451846       1.95780803
O        9.80630284      13.22635584       0.94673543
H        9.40780280      14.09643985       0.96631546
H        9.31971959      12.75469718       0.27071273
O       14.87360027       2.61671673       2.86739995
H       15.14181268       1.86345030       3.39359729
H       14.33895922       3.14521583       3.45991955
O        8.24216326       7.09841511      14.20106607
H        8.33594425       7.03060053      13.25088812
H        8.87518264       6.47095763      14.55008671
O        0.00130513       3.13907697       7.03018711
H        0.58973234       3.62787337       6.45480607
H       -0.83506909       3.60011722       6.96575193
O       12.26844507      13.60007716      11.25415829
H       12.47338081      14.04153589      12.07838360
H       12.58534667      14.19745283      10.57670163
O        3.22092290      10.28272637      15.37962475
H        2.51677600      10.28340413      14.73123557
H        3.96758244      10.67084411      14.92344935
O       13.73416873       0.02570402       1.48684683
H       14.68734602       0.10161225       1.44299666
H       13.47582133      -0.26224345       0.61130430
391
Properties=species:S:1:pos:R:3 charge=0 spin=1 spin_multiplicity=1 metal=La geometry=droplet boundary=non-pbc droplet_radius=9.7223 pbc="F F F"
La       0.00000000       0.00000000       0.00000000
O       -0.65442983      -1.71025522       1.55136994
H       -1.51536827      -2.11907110       1.69611306
O        2.30138169       0.21827473      -0.64497941
H        3.08457458      -0.23196156      -0.30853897
O       -1.64695186       1.49198048      -0.90639053
H       -2.55133144       1.66413379      -0.62045904
O        1.55578058      -0.10079533       2.00523991
H        1.31830533      -0.08540987       2.93238640
H        2.51097574      -0.16268016       2.00315996
O        1.03485803      -2.24607487      -0.57949678
H        0.58376493      -3.07451161      -0.74209881
H        1.96335663      -2.45380779      -0.68423088
O        0.77516702       2.41774685       0.07222373
H        0.94739755       2.95493406       0.84552729
H        0.96054014       2.99592580      -0.66776123
O        0.25424447       0.27246730      -2.51251295
H        1.05430872       0.19498034      -3.03224827
H       -0.42853054       0.47565015      -3.15186172
O       -1.54956378       0.90096780       1.79964138
H       -1.31137411       1.23454611       2.66464025
H       -2.50260539       0.98302812       1.76486141
O       -2.07048633      -1.24431175      -0.78509530
H       -2.76376215      -1.62628213      -0.24685827
H       -2.33237685      -1.43637301      -1.68551613
O       -0.71477199       2.16882403      -6.63694641
H       -0.80205838       3.09538465      -6.41311982
H       -0.94859865       1.70469474      -5.83311749
O       -2.01173099       0.98372713      -3.83808104
H       -2.51876853       1.53666518      -4.43255921
H       -2.14236601       1.37643522      -2.97497810
O       -0.48081689       3.36799975      -2.49355180
H       -1.03864365       2.90461165      -1.86878575
H       -0.95598674       4.17635125      -2.68594021
O       -2.25399433       3.52815005       1.80915626
H       -2.36014070       3.14971853       2.68194167
H       -1.48058542       3.09242151       1.45109044
O        0.79797604      -3.27334022       3.23828501
H        1.30785048      -4.02001062       2.92405068
H        0.34750043      -2.94569958       2.45985378
O        3.88888302      -0.24705578       3.39579408
H        4.75255712      -0.04675109       3.75659445
H        3.36077035      -0.48781488       4.15695366
O        3.74458665       0.34334775      -2.95471396
H        3.63561021      -0.48782855      -3.41677666
H        3.16479768       0.27409323      -2.19624155
O        1.22686736       3.77120992       2.68900981
H        0.59169296       4.38767651       2.32465523
H        2.06579148       4.22839481       2.63052789
O        0.93172461      -0.89975282      -4.97547070
H        0.25894670      -0.29408330      -5.28654329
H        1.75195539      -0.54295331      -5.31627478
O       -2.49683259       1.96628108       4.15962544
H       -3.40710510       2.23552816       4.03657335
H       -2.25620349       2.31828508       5.01661007
O        4.12471907      -3.09462076      -0.94346648
H        4.89412081      -2.76686431      -0.47781800
H        4.41237848      -3.17931580      -1.85248279
O       -4.93829669       1.89525799       0.41550308
H       -5.57353455       1.63359141      -0.25100671
H       -4.26761619       1.21282871       0.38886138
O        4.49916328       2.87725461      -0.52509813
H        3.70921142       3.39911232      -0.66606775
H        4.17440192       1.99847926      -0.32884373
O        2.14483198       4.98317330      -0.97700349
H        1.97206472       5.26835302      -0.07975445
H        1.66187618       5.60341682      -1.52315686
O       -4.42036502      -2.85052564      -2.10520654
H       -4.65168183      -3.77935053      -2.10225849
H       -4.35964796      -2.61538937      -1.17932522
O        1.30781559       1.92380967       5.26136873
H        1.27387061       2.42510003       4.44663715
H        0.51930086       1.38148144       5.24248884
O       -2.56491777       5.19165193      -0.59484842
H       -2.62258375       4.88365242       0.30960875
H       -3.40491038       5.62137005      -0.75605205
O       -0.82936750      -4.63861851      -3.45189724
H       -1.27323411      -3.98995037      -2.90559703
H       -0.21967356      -4.12740188      -3.98402757
O       -0.77462840       5.78537272       1.47030231
H       -1.25262910       4.98851536       1.70000979
H       -0.19392103       5.51975600       0.75723951
O        2.94475487       2.43148863      -4.79726940
H        3.28149457       1.68470764      -4.30213672
H        3.19714887       2.25235308      -5.70305059
O       -3.32578359      -0.36336161       5.29276498
H       -3.33859695      -1.20654496       5.74565513
H       -2.39603989      -0.16521234       5.18075890
O        3.53045524      -2.60176786      -4.57610579
H        4.40513568      -2.23984443      -4.43405860
H        3.27744337      -2.28472644      -5.44311304
O        6.10126641      -0.28207656      -1.72852113
H        6.55535457       0.50526236      -1.42829918
H        5.17876974      -0.02891631      -1.76230897
O        4.60265563      -3.62257017       2.50311259
H        3.76166282      -3.30183133       2.17739869
H        4.37101641      -4.28223309       3.15688621
O       -3.54232173       2.85297774      -5.08752265
H       -4.18039395       3.42670510      -4.66333802
H       -4.06730771       2.14561047      -5.46202647
O        2.96329657      -5.30338079      -2.02562188
H        3.20621718      -5.40828236      -1.10572130
H        3.76047514      -4.98563025      -2.44961806
O        2.17886804      -1.49819764       5.86131505
H        1.26445962      -1.74836838       5.72901359
H        2.15772311      -0.54450595       5.94041555
O       -0.14696676      -3.05209940       5.77925640
H        0.34827956      -3.36603948       5.02268217
H        0.27355231      -3.46917549       6.53121589
O        3.45842659      -0.10153810      -5.64478468
H        4.40767850       0.02125021      -5.65348448
H        3.14656792       0.38446308      -6.40818422
O       -2.40882492      -4.28044318       4.41472914
H       -2.70151751      -3.77230425       5.17127240
H       -3.10459059      -4.92237356       4.27306983
O       -1.58334557       5.78563565      -3.07481522
H       -1.96879005       5.82034706      -2.19933848
H       -1.49402534       6.70267061      -3.33423884
O       -5.39406938      -1.27264301       3.77823496
H       -4.55669973      -1.10972076       4.21240110
H       -6.05176106      -0.96687208       4.40287697
O        2.25927399      -5.65512088       2.87893674
H        2.83850120      -5.37790499       3.58878111
H        2.57961372      -6.52290084       2.63282244
O        6.26044800      -2.46791831       0.61996118
H        6.75614202      -3.16965071       0.19795298
H        5.72129447      -2.91412973       1.27298543
O        0.49666221      -3.44599246      -5.82740052
H        0.74178193      -2.58632991      -5.48516016
H       -0.46035754      -3.43451478      -5.84200512
O       -4.77435976       3.35110811       3.61784677
H       -4.71239183       4.15025757       3.09463366
H       -5.35353573       2.77896682       3.11441715
O       -0.39401907      -6.03792294       3.33926119
H       -0.80289634      -5.37063843       2.78809642
H        0.54117891      -5.96724545       3.14784211
O       -6.07533667       0.77495999      -3.22274606
H       -5.50004042       1.48225316      -2.93119427
H       -5.97545118       0.76130468      -4.17462224
O       -0.52103165       4.74082146       5.19860754
H       -0.91928454       3.97975065       5.62097906
H       -0.33719791       4.45062802       4.30517328
O        2.79054693       7.04834015       2.11202800
H        3.12796119       7.21492293       1.23189527
H        1.96285753       7.52789700       2.14648583
O       -3.00634065      -0.35482328      -6.51507547
H       -2.73883947       0.02077851      -5.67626784
H       -2.81467110       0.32939084      -7.15643782
O       -4.45562472      -2.39281191      -5.13016813
H       -3.91637580      -1.76395284      -5.60972908
H       -4.34473892      -2.15182754      -4.21046018
O        0.80428609      -7.18053458      -0.27942569
H        1.42649576      -6.66156955      -0.78909447
H        0.10472152      -7.39164563      -0.89770829
O       -2.26652556      -3.92214363      -5.64726519
H       -2.98135772      -3.42902493      -5.24467263
H       -1.89810581      -4.43892285      -4.93071934
O       -6.63459051       4.14326829      -1.40937499
H       -7.46219440       4.47410290      -1.75844820
H       -6.80829557       3.22295076      -1.21170344
O       -2.45001884      -4.80307961       0.26892021
H       -1.56792627      -4.44020868       0.18848871
H       -2.99273727      -4.05902279       0.52981865
O        0.96511794       6.68242771      -2.74313288
H        0.25117100       6.04506950      -2.76004793
H        1.15682507       6.85257818      -3.66537419
O       -1.60333359       2.69247389       6.62391111
H       -1.94955984       2.35359678       7.44945428
H       -0.77830708       2.22344077       6.49912719
O       -7.19251710      -1.66614116       0.44720567
H       -8.13049818      -1.47594592       0.46298883
H       -7.12201335      -2.55509700       0.79508292
O        5.26543726      -4.15683007      -3.17256302
H        5.20548540      -4.52068360      -4.05587963
H        5.66104275      -3.29382565      -3.29483938
O        5.27468765       2.51933729       2.48787312
H        5.00823792       2.70489010       1.58742516
H        4.83393280       1.69761846       2.70407943
O       -7.13559541       1.18339446       1.86384814
H       -7.35327659       2.11527436       1.88498093
H       -6.23461535       1.15465040       1.54191561
O       -4.82050417       5.40651417       1.83663449
H       -4.67386484       5.16179842       0.92293709
H       -4.30456845       6.20367850       1.95734574
O       -7.36811517       0.94300212      -0.83551218
H       -7.39736838       0.03958936      -0.52051777
H       -6.94236649       0.88525299      -1.69086879
O        7.11310209       2.26752571      -0.96550994
H        7.43793693       2.63216816      -0.14225417
H        6.16118896       2.34710893      -0.90419318
O        6.08968765      -1.73259513      -4.11820700
H        6.24164459      -1.26373251      -3.29765305
H        6.41486508      -1.14072341      -4.79657220
O        7.18586772      -0.65166854       2.42085952
H        7.28809858      -1.56877974       2.67519736
H        6.24033020      -0.50320453       2.43306916
O        3.63535159       1.32454219       6.61577183
H        2.93341963       1.30322932       5.96533420
H        4.26513999       1.95625969       6.26859549
O        6.66420915       1.52254946      -3.68427957
H        6.81250107       1.87123932      -2.80527062
H        7.10688632       0.67386321      -3.68363442
O       -3.63704775      -5.97624539      -3.41021476
H       -2.76539385      -5.58336493      -3.45599973
H       -4.22951634      -5.27934365      -3.69224452
O       -3.18091450      -2.73170280       6.62256682
H       -2.42282186      -2.32334769       7.04062600
H       -3.61605556      -3.20939025       7.32875292
O       -1.37711449       5.20272989      -5.72372432
H       -1.43334288       5.40340014      -4.78948578
H       -0.80237910       5.87995504      -6.08048359
O        2.36759645      -5.35732469      -5.33261351
H        1.87881727      -4.70005916      -5.82792024
H        3.25974478      -5.30132655      -5.67491076
O        5.52543321      -5.68754308       0.98740168
H        5.47283354      -6.47589969       1.52773397
H        5.14131821      -4.99874420       1.52984394
O       -5.04342060       1.89815290       5.92598135
H       -4.58780280       1.11238902       5.62395588
H       -5.13903273       2.43693400       5.14061195
O       -0.76658548      -1.45526901       7.89221766
H       -0.75487731      -0.93648949       8.69655750
H       -0.00193302      -2.02657459       7.96396991
O        4.28008817       6.05139601      -3.08393793
H        4.59159121       6.79809123      -2.57242650
H        3.43302575       5.83149525      -2.69617416
O       -5.46679086       0.60775096      -5.86851875
H       -4.63359405       0.29931001      -6.22471968
H       -6.02243607       0.73882581      -6.63683484
O       -6.93577195      -2.64933184      -3.12152280
H       -6.60318815      -3.34753730      -3.68555205
H       -6.26696494      -2.54895461      -2.44413559
O       -5.79095963      -3.95680877       3.96831987
H       -5.51702755      -3.04980319       3.83218051
H       -6.59104055      -3.89020487       4.48953603
O        4.65448848       3.69149161       5.46670196
H        4.27087561       4.02120869       4.65407680
H        3.99912368       3.88458534       6.13710753
O       -1.92974144       7.83646493      -0.59356448
H       -1.88414571       6.88762485      -0.47585563
H       -1.09487661       8.06821362      -1.00041224
O       -4.21576153      -2.43254029       1.16826967
H       -4.74691071      -3.21402935       1.01534080
H       -4.59935496      -2.03038684       1.94760305
O       -5.94248904       3.94556247      -4.42145127
H       -6.76822733       4.07827344      -4.88704327
H       -6.18284246       3.96867308      -3.49520725
O       -5.52327633      -5.97793635      -1.45048547
H       -5.66223571      -6.77102797      -1.96810290
H       -6.40521079      -5.67098167      -1.24024210
O        2.95718592       1.76343330      -7.56044960
H        3.00068063       2.05137074      -8.47227858
H        2.06888467       1.98488395      -7.28096376
O       -1.56378097      -7.79131699      -2.46745130
H       -1.77735617      -7.69348611      -3.39537727
H       -2.36553231      -8.13268075      -2.07134854
O        4.39201619      -5.42988916       4.55198260
H        3.99611822      -5.96802754       5.23747783
H        4.93731341      -4.80141987       5.02517298
O       -2.74287356       7.63329156       1.99408633
H       -2.62026878       8.02021555       1.12720126
H       -2.14078319       6.88938903       2.01219851
O       -4.57810717       6.91971858      -1.20156998
H       -5.14385748       6.94836801      -0.42998872
H       -3.83626260       7.48105729      -0.97618737
O       -4.05230780       6.03974626      -4.27764200
H       -3.29231123       5.71777229      -3.79290515
H       -4.65900480       5.29951373      -4.29200800
O       -7.19303414       4.08082147       1.72690591
H       -6.31860632       4.46478799       1.79153973
H       -7.32443688       3.93962393       0.78934076
O        5.26542469      -3.16720647       5.80924460
H        4.94185065      -2.82543705       4.97574274
H        5.07890756      -2.47338957       6.44174860
O       -7.17432059      -4.35142937       1.57864323
H       -6.71510245      -4.25012788       2.41236294
H       -8.10241246      -4.31121405       1.80942461
O       -1.03196161      -6.00707150       6.00262175
H       -0.80783562      -6.07852705       5.07477830
H       -0.97144550      -5.07089240       6.19272257
O       -5.80213670      -4.71933758      -4.47368675
H       -5.78602301      -5.57474528      -4.90293011
H       -5.19515619      -4.18327272      -4.98402092
O        1.50526295      -3.03712701       8.06270039
H        1.88800344      -2.73432751       8.88614074
H        1.91245476      -2.48814666       7.39259050
O       -7.65863323       0.14002872       4.32072000
H       -8.40125635       0.65719347       4.63262280
H       -7.45626791       0.50577010       3.45960830
O        1.03219649       0.24467417      -8.73781596
H        1.91991993       0.41216511      -8.42138949
H        1.15128865      -0.33121812      -9.49306225
O        6.72472905       4.85661307      -2.98220869
H        5.89306982       5.32115296      -3.07589677
H        6.95187325       4.95523987      -2.05759520
O        8.64559687      -1.18272745      -1.39144439
H        9.04164094      -1.21589475      -2.26223762
H        7.71020885      -1.06568625      -1.55752407
O        7.48923951      -3.48556233       3.17013303
H        6.55505377      -3.48867199       2.96152053
H        7.74634787      -4.40686451       3.13367177
O       -4.50746651      -6.34198888       4.21724010
H       -5.22890292      -6.96917296       4.26624500
H       -4.93545653      -5.49014769       4.13108339
O        2.47575828       3.52321451       7.78129710
H        2.22101277       4.03990867       7.01686024
H        2.89929703       2.74656131       7.41570639
O        2.21942689       4.72691693      -7.21898275
H        1.29924148       4.64333026      -7.46899062
H        2.58828009       3.85606217      -7.36660100
O        7.95181470       3.72918544       1.60488902
H        7.90232427       4.48901523       2.18492457
H        7.10311796       3.29734285       1.70213951
O        5.73832666       1.47488542      -6.69616068
H        6.09148555       2.36376744      -6.65875250
H        4.83513272       1.58776351      -6.99235503
O        4.71684871      -1.13263016       7.53347769
H        4.32373893      -0.31142479       7.23798102
H        4.69255107      -1.08018785       8.48893113
O        4.96094975      -4.70099059      -5.82469504
H        5.03471745      -4.89869210      -6.75834609
H        4.55403814      -3.83512575      -5.79415254
O        0.04494875       8.70340549       2.22126386
H        0.02013146       9.45352872       1.62718384
H       -0.83898199       8.33806115       2.18355724
O        3.30381915      -7.90304741      -2.74988110
H        3.78879699      -8.12487109      -1.95500841
H        3.02052029      -6.99892744      -2.61371699
O       -5.89535417      -0.79965854       7.02039332
H       -5.84267683       0.12189401       6.76702038
H       -4.99229674      -1.11350394       6.97327458
O        1.43677723      -8.10521302       4.17998720
H        0.59491746      -7.66623063       4.05833845
H        1.85477100      -7.62822257       4.89692037
O        7.35849548       5.56881153      -0.32011187
H        8.17204779       6.01398306      -0.55714938
H        7.62191984       4.91758996       0.33008035
O       -2.12196236      -7.46412541      -5.10995865
H       -2.89119396      -6.96632532      -4.83299357
H       -2.04771353      -7.28891810      -6.04805318
O        6.80260816      -6.11275422      -2.07261812
H        6.28096507      -5.44465529      -2.51732493
H        6.48728748      -6.10125794      -1.16891875
O        3.61340760      -8.64870462      -0.15246887
H        2.81268493      -8.13838432      -0.27349876
H        3.30659426      -9.53593707       0.03438935
O       -0.25559148       9.07954555      -2.34051067
H        0.18249885       8.24401798      -2.50238217
H       -0.39179662       9.45185536      -3.21175427
O       -1.71370215      -9.17885696       1.13531783
H       -1.03725050      -8.62978386       0.73887901
H       -1.94198639      -9.80924584       0.45214289
O        3.62708648      -5.04008192       7.13293846
H        2.87972402      -4.51878178       7.42607213
H        4.27565634      -4.39387170       6.85365128
O       -3.48285610      -2.11146220      -8.53635051
H       -3.27059999      -1.50820558      -7.82412818
H       -3.45652489      -1.57006949      -9.32529439
O       -9.11802121       2.56475234       0.54607603
H       -8.51066840       2.01118493       0.05524253
H       -9.31829303       3.28743625      -0.04877774
O       -7.15042474       4.39819034       4.42799118
H       -8.00650560       4.19492630       4.80487463
H       -7.26951097       4.28207653       3.48535239
O        3.59819364      -8.40899641       2.55690532
H        2.69643651      -8.43084963       2.87719951
H        3.51386838      -8.38944437       1.60362740
O       -8.04968297      -5.15289895      -0.87170847
H       -7.76998774      -4.76064681      -0.04458050
H       -8.19733010      -4.40705414      -1.45321314
O        7.03954074       5.83125714       3.07030734
H        6.48994188       5.85614491       3.85360392
H        6.60947171       6.42653141       2.45636842
O       -7.96879869      -2.54449982       4.82853045
H       -8.81102987      -2.77751653       4.43791340
H       -7.89203120      -1.60077062       4.68812470
O        3.52698681       7.07219087       5.57220793
H        3.14707738       6.26214349       5.91239008
H        3.34594838       7.04610816       4.63264600
O        7.50005153      -0.50864685      -6.09588859
H        8.04145037      -0.66131663      -6.87036329
H        6.91577389       0.20617638      -6.34863200
O       -2.16259001      -4.48444806      -8.30647769
H       -2.49817722      -3.64417281      -8.61880854
H       -2.16470827      -4.40413908      -7.35265495
O        6.03204127       7.52148984       1.19242063
H        6.50035362       6.95731477       0.57709804
H        5.12269139       7.22657371       1.14405625
O        5.93275983       7.54931279      -1.52723457
H        5.24506018       7.54566535      -0.86143600
H        6.45508671       6.77006695      -1.33701788
391
Lattice="41.262774561076355 0.0 0.0 0.0 41.262774561076355 0.0 0.0 0.0 41.262774561076355" Properties=species:S:1:pos:R:3 charge=0 spin=1 spin_multiplicity=1 metal=La geometry=droplet boundary=pbc droplet_radius=9.7223 pbc="T T T"
La      20.76971333      20.80924584      20.93484804
O       20.11528350      19.09899062      22.48621797
H       19.25434505      18.69017474      22.63096109
O       23.07109502      21.02752057      20.28986862
H       23.85428791      20.57728428      20.62630907
O       19.12276146      22.30122632      20.02845751
H       18.21838188      22.47337963      20.31438900
O       22.32549391      20.70845051      22.94008794
H       22.08801865      20.72383597      23.86723444
H       23.28068906      20.64656568      22.93800799
O       21.80457136      18.56317096      20.35535126
H       21.35347826      17.73473422      20.19274923
H       22.73306996      18.35543805      20.25061716
O       21.54488035      23.22699269      21.00707177
H       21.71711088      23.76417990      21.78037532
H       21.73025346      23.80517164      20.26708680
O       21.02395780      21.08171314      18.42233509
H       21.82402205      21.00422617      17.90259976
H       20.34118279      21.28489599      17.78298631
O       19.22014954      21.71021364      22.73448942
H       19.45833921      22.04379195      23.59948828
H       18.26710794      21.79227396      22.69970945
O       18.69922699      19.56493409      20.14975274
H       18.00595117      19.18296371      20.68798977
H       18.43733648      19.37287283      19.24933191
O       20.05494133      22.97806987      14.29790162
H       19.96765494      23.90463049      14.52172821
H       19.82111467      22.51394058      15.10173055
O       18.75798234      21.79297297      17.09676700
H       18.25094480      22.34591102      16.50228883
H       18.62734731      22.18568106      17.95986994
O       20.28889644      24.17724559      18.44129624
H       19.73106968      23.71385749      19.06606228
H       19.81372658      24.98559709      18.24890782
O       18.51571899      24.33739588      22.74400429
H       18.40957263      23.95896437      23.61678971
H       19.28912791      23.90166735      22.38593847
O       21.56768937      17.53590562      24.17313304
H       22.07756381      16.78923522      23.85889872
H       21.11721376      17.86354626      23.39470181
O       24.65859634      20.56219005      24.33064211
H       25.52227045      20.76249475      24.69144249
H       24.13048367      20.32143096      25.09180169
O       24.51429998      21.15259359      17.98013407
H       24.40532354      20.32141729      17.51807137
H       23.93451100      21.08333907      18.73860648
O       21.99658068      24.58045575      23.62385785
H       21.36140628      25.19692234      23.25950327
H       22.83550480      25.03764065      23.56537593
O       21.70143793      19.90949302      15.95937733
H       21.02866002      20.51516254      15.64830474
H       22.52166871      20.26629253      15.61857326
O       18.27288073      22.77552692      25.09447348
H       17.36260823      23.04477399      24.97142139
H       18.51350983      23.12753092      25.95145811
O       24.89443240      17.71462508      19.99138155
H       25.66383414      18.04238153      20.45703003
H       25.18209181      17.62993004      19.08236524
O       15.83141663      22.70450383      21.35035111
H       15.19617877      22.44283725      20.68384132
H       16.50209713      22.02207455      21.32370941
O       25.26887661      23.68650045      20.40974990
H       24.47892475      24.20835816      20.26878029
H       24.94411525      22.80772510      20.60600430
O       22.91454531      25.79241914      19.95784455
H       22.74177804      26.07759886      20.85509359
H       22.43158950      26.41266266      19.41169118
O       16.34934830      17.95872020      18.82964149
H       16.11803149      17.02989530      18.83258954
H       16.41006536      18.19385647      19.75552281
O       22.07752892      22.73305551      26.19621677
H       22.04358394      23.23434587      25.38148519
H       21.28901419      22.19072728      26.17733688
O       18.20479555      26.00089777      20.33999961
H       18.14712958      25.69289826      21.24445678
H       17.36480295      26.43061588      20.17879598
O       19.94034582      16.17062733      17.48295080
H       19.49647921      16.81929547      18.02925101
H       20.55003977      16.68184396      16.95082046
O       19.99508493      26.59461855      22.40515034
H       19.51708423      25.79776120      22.63485782
H       20.57579230      26.32900184      21.69208755
O       23.71446819      23.24073447      16.13757864
H       24.05120790      22.49395348      16.63271131
H       23.96686219      23.06159892      15.23179745
O       17.44392974      20.44588423      26.22761302
H       17.43111638      19.60270088      26.68050317
H       18.37367344      20.64403350      26.11560694
O       24.30016857      18.20747797      16.35874224
H       25.17484900      18.56940141      16.50078943
H       24.04715670      18.52451940      15.49173499
O       26.87097974      20.52716928      19.20632691
H       27.32506790      21.31450819      19.50654886
H       25.94848306      20.78032953      19.17253907
O       25.37236895      17.18667567      23.43796062
H       24.53137615      17.50741450      23.11224672
H       25.14072973      16.52701275      24.09173425
O       17.22739159      23.66222358      15.84732538
H       16.58931938      24.23595094      16.27151001
H       16.70240561      22.95485631      15.47282157
O       23.73300989      15.50586504      18.90922615
H       23.97593050      15.40096348      19.82912673
H       24.53018846      15.82361559      18.48522997
O       22.94858137      19.31104819      26.79616309
H       22.03417294      19.06087746      26.66386162
H       22.92743644      20.26473989      26.87526359
O       20.62274656      17.75714644      26.71410443
H       21.11799288      17.44320636      25.95753021
H       21.04326563      17.34007035      27.46606393
O       24.22813991      20.70770774      15.29006336
H       25.17739182      20.83049605      15.28136356
H       23.91628124      21.19370892      14.52666382
O       18.36088841      16.52880266      25.34957717
H       18.06819581      17.03694159      26.10612044
H       17.66512274      15.88687227      25.20791786
O       19.18636776      26.59488149      17.86003282
H       18.80092328      26.62959290      18.73550955
H       19.27568799      27.51191645      17.60060919
O       15.37564394      19.53660283      24.71308299
H       16.21301360      19.69952508      25.14724913
H       14.71795227      19.84237375      25.33772500
O       23.02898731      15.15412495      23.81378478
H       23.60821452      15.43134085      24.52362915
H       23.34932704      14.28634500      23.56767048
O       27.03016132      18.34132753      21.55480921
H       27.52585535      17.63959513      21.13280102
H       26.49100780      17.89511610      22.20783347
O       21.26637554      17.36325338      15.10744752
H       21.51149525      18.22291593      15.44968788
H       20.30935579      17.37473106      15.09284292
O       15.99535357      24.16035394      24.55269480
H       16.05732149      24.95950340      24.02948170
H       15.41617759      23.58821266      24.04926519
O       20.37569425      14.77132290      24.27410922
H       19.96681698      15.43860740      23.72294445
H       21.31089224      14.84200039      24.08269015
O       14.69437665      21.58420583      17.71210198
H       15.26967290      22.29149900      18.00365376
H       14.79426214      21.57055052      16.76022580
O       20.24868167      25.55006729      26.13345557
H       19.85042878      24.78899649      26.55582710
H       20.43251542      25.25987386      25.24002132
O       23.56026025      27.85758599      23.04687604
H       23.89767452      28.02416877      22.16674331
H       22.73257086      28.33714283      23.08133387
O       17.76337267      20.45442255      14.41977256
H       18.03087386      20.83002435      15.25858020
H       17.95504223      21.13863668      13.77841021
O       16.31408860      18.41643392      15.80467991
H       16.85333752      19.04529300      15.32511896
H       16.42497440      18.65741830      16.72438785
O       21.57399941      13.62871126      20.65542235
H       22.19620909      14.14767629      20.14575357
H       20.87443485      13.41760020      20.03713975
O       18.50318776      16.88710221      15.28758284
H       17.78835560      17.38022091      15.69017541
H       18.87160752      16.37032298      16.00412869
O       14.13512281      24.95251413      19.52547304
H       13.30751893      25.28334874      19.17639983
H       13.96141775      24.03219660      19.72314459
O       18.31969448      16.00616623      21.20376824
H       19.20178705      16.36903716      21.12333675
H       17.77697605      16.75022305      21.46466668
O       21.73483127      27.49167355      18.19171516
H       21.02088433      26.85431534      18.17480011
H       21.92653840      27.66182402      17.26947385
O       19.16637974      23.50171973      27.55875915
H       18.82015349      23.16284262      28.38430232
H       19.99140625      23.03268661      27.43397523
O       13.57719622      19.14310468      21.38205371
H       12.63921515      19.33329992      21.39783687
H       13.64769998      18.25414884      21.72993095
O       26.03515058      16.65241577      17.76228501
H       25.97519872      16.28856224      16.87896841
H       26.43075607      17.51542019      17.64000865
O       26.04440098      23.32858313      23.42272116
H       25.77795124      23.51413594      22.52227319
H       25.60364612      22.50686430      23.63892747
O       13.63411792      21.99264030      22.79869617
H       13.41643673      22.92452020      22.81982896
H       14.53509798      21.96389623      22.47676364
O       15.94920916      26.21576001      22.77148253
H       16.09584849      25.97104426      21.85778512
H       16.46514488      27.01292434      22.89219378
O       13.40159816      21.75224796      20.09933586
H       13.37234495      20.84883520      20.41433026
H       13.82734683      21.69449882      19.24397924
O       27.88281541      23.07677155      19.96933810
H       28.20765025      23.44141400      20.79259386
H       26.93090228      23.15635477      20.03065485
O       26.85940098      19.07665071      16.81664104
H       27.01135792      19.54551332      17.63719498
H       27.18457840      19.66852243      16.13827583
O       27.95558104      20.15757730      23.35570756
H       28.05781191      19.24046609      23.61004540
H       27.01004352      20.30604131      23.36791720
O       24.40506492      22.13378803      27.55061987
H       23.70313295      22.11247516      26.90018223
H       25.03485332      22.76550552      27.20344352
O       27.43392248      22.33179530      17.25056847
H       27.58221440      22.68048516      18.12957741
H       27.87659964      21.48310904      17.25121362
O       17.13266557      14.83300045      17.52463327
H       18.00431947      15.22588091      17.47884830
H       16.54019699      15.52990219      17.24260352
O       17.58879882      18.07754304      27.55741486
H       18.34689147      18.48589815      27.97547404
H       17.15365777      17.59985559      28.26360096
O       19.39259884      26.01197573      15.21112371
H       19.33637045      26.21264598      16.14536226
H       19.96733423      26.68920088      14.85436445
O       23.13730978      15.45192114      15.60223453
H       22.64853059      16.10918668      15.10692780
H       24.02945811      15.50791929      15.25993728
O       26.29514653      15.12170276      21.92224972
H       26.24254686      14.33334615      22.46258200
H       25.91103154      15.81050164      22.46469198
O       15.72629272      22.70739873      26.86082938
H       16.18191053      21.92163486      26.55880392
H       15.63068060      23.24617984      26.07545999
O       20.00312784      19.35397683      28.82706570
H       20.01483602      19.87275635      29.63140554
H       20.76778031      18.78267125      28.89881795
O       25.04980150      26.86064185      17.85091010
H       25.36130453      27.60733707      18.36242153
H       24.20273907      26.64074109      18.23867387
O       15.30292246      21.41699679      15.06632929
H       16.13611927      21.10855585      14.71012836
H       14.74727726      21.54807165      14.29801319
O       13.83394138      18.15991400      17.81332523
H       14.16652517      17.46170854      17.24929598
H       14.50274838      18.26029123      18.49071244
O       14.97875369      16.85243707      24.90316791
H       15.25268578      17.75944265      24.76702855
H       14.17867277      16.91904097      25.42438406
O       25.42420181      24.50073744      26.40154999
H       25.04058893      24.83045453      25.58892484
H       24.76883700      24.69383117      27.07195556
O       18.83997188      28.64571077      20.34128355
H       18.88556761      27.69687069      20.45899241
H       19.67483672      28.87745946      19.93443580
O       16.55395180      18.37670555      22.10311770
H       16.02280261      17.59521649      21.95018883
H       16.17035837      18.77885900      22.88245109
O       14.82722429      24.75480831      16.51339677
H       14.00148600      24.88751928      16.04780476
H       14.58687087      24.77791892      17.43964078
O       15.24643699      14.83130949      19.48436256
H       15.10747762      14.03821786      18.96674514
H       14.36450253      15.13826417      19.69460594
O       23.72689925      22.57267913      13.37439844
H       23.77039396      22.86061657      12.46256946
H       22.83859799      22.79412978      13.65388427
O       19.20593236      13.01792885      18.46739673
H       18.99235716      13.11575973      17.53947077
H       18.40418101      12.67656508      18.86349950
O       25.16172952      15.37935668      25.48683063
H       24.76583154      14.84121830      26.17232587
H       25.70702673      16.00782597      25.96002102
O       18.02683977      28.44253739      22.92893437
H       18.14944454      28.82946139      22.06204929
H       18.62893014      27.69863486      22.94704654
O       16.19160615      27.72896442      19.73327806
H       15.62585585      27.75761385      20.50485932
H       16.93345072      28.29030313      19.95866067
O       16.71740553      26.84899210      16.65720603
H       17.47740210      26.52701813      17.14194288
H       16.11070853      26.10875956      16.64284004
O       13.57667918      24.89006730      22.66175395
H       14.45110701      25.27403383      22.72638777
H       13.44527645      24.74886977      21.72418879
O       26.03513802      17.64203937      26.74409263
H       25.71156397      17.98380879      25.91059078
H       25.84862088      18.33585627      27.37659663
O       13.59539274      16.45781647      22.51349126
H       14.05461087      16.55911796      23.34721097
H       12.66730087      16.49803179      22.74427264
O       19.73775171      14.80217434      26.93746979
H       19.96187771      14.73071879      26.00962633
H       19.79826783      15.73835344      27.12757061
O       14.96757663      16.08990825      16.46116129
H       14.98369032      15.23450056      16.03191793
H       15.57455713      16.62597312      15.95082712
O       22.27497628      17.77211883      28.99754842
H       22.65771676      18.07491833      29.82098878
H       22.68216808      18.32109918      28.32743854
O       13.11108010      20.94927455      25.25556804
H       12.36845698      21.46643931      25.56747083
H       13.31344541      21.31501594      24.39445634
O       21.80190981      21.05392001      12.19703208
H       22.68963326      21.22141095      12.51345855
H       21.92100198      20.47802772      11.44178578
O       27.49444237      25.66585890      17.95263934
H       26.66278315      26.13039879      17.85895126
H       27.72158658      25.76448571      18.87725283
O       29.41531019      19.62651839      19.54340365
H       29.81135427      19.59335108      18.67261041
H       28.47992218      19.74355958      19.37732396
O       28.25895283      17.32368351      24.10498107
H       27.32476710      17.32057385      23.89636856
H       28.51606119      16.40238133      24.06851980
O       16.26224681      14.46725696      25.15208813
H       15.54081041      13.84007288      25.20109304
H       15.83425680      15.31909815      25.06593142
O       23.24547161      24.33246035      28.71614514
H       22.99072610      24.84915451      27.95170828
H       23.66901036      23.55580714      28.35055443
O       22.98914021      25.53616276      13.71586529
H       22.06895481      25.45257610      13.46585741
H       23.35799341      24.66530801      13.56824703
O       28.72152802      24.53843128      22.53973706
H       28.67203759      25.29826106      23.11977260
H       27.87283128      24.10658868      22.63698755
O       26.50803998      22.28413125      14.23868736
H       26.86119888      23.17301328      14.27609554
H       25.60484605      22.39700935      13.94249301
O       25.48656203      19.67661568      28.46832573
H       25.09345226      20.49782105      28.17282906
H       25.46226440      19.72905799      29.42377916
O       25.73066308      16.10825525      15.11015300
H       25.80443078      15.91055373      14.17650195
H       25.32375146      16.97412009      15.14069550
O       20.81466208      29.51265133      23.15611190
H       20.78984479      30.26277456      22.56203187
H       19.93073133      29.14730699      23.11840528
O       24.07353248      12.90619843      18.18496693
H       24.55851031      12.68437474      18.97983962
H       23.79023361      13.81031840      18.32113105
O       14.87435916      20.00958730      27.95524135
H       14.92703649      20.93113985      27.70186841
H       15.77741659      19.69574190      27.90812262
O       22.20649056      12.70403282      25.11483524
H       21.36463079      13.14301521      24.99318648
H       22.62448432      13.18102327      25.83176840
O       28.12820881      26.37805736      20.61473617
H       28.94176112      26.82322890      20.37769866
H       28.39163316      25.72683580      21.26492838
O       18.64775097      13.34512043      15.82488939
H       17.87851936      13.84292051      16.10185446
H       18.72199979      13.52032774      14.88679485
O       27.57232148      14.69649161      18.86222992
H       27.05067839      15.36459055      18.41752311
H       27.25700080      14.70798789      19.76592928
O       24.38312093      12.16054122      20.78237917
H       23.58239826      12.67086152      20.66134928
H       24.07630759      11.27330877      20.96923739
O       20.51412185      29.88879139      18.59433736
H       20.95221218      29.05326382      18.43246587
H       20.37791671      30.26110119      17.72309376
O       19.05601118      11.63038887      22.07016587
H       19.73246282      12.17946198      21.67372705
H       18.82772693      11.00000000      21.38699092
O       24.39679981      15.76916391      28.06778649
H       23.64943735      16.29046406      28.36092017
H       25.04536966      16.41537414      27.78849931
O       17.28685723      18.69778364      12.39849753
H       17.49911333      19.30104026      13.11071986
H       17.31318843      19.23917635      11.60955365
O       11.65169212      23.37399818      21.48092407
H       12.25904493      22.82043077      20.99009056
H       11.45142029      24.09668209      20.88607030
O       13.61928858      25.20743618      25.36283921
H       12.76320772      25.00417214      25.73972266
H       13.50020235      25.09132237      24.42020042
O       24.36790696      12.40024943      23.49175336
H       23.46614984      12.37839621      23.81204755
H       24.28358170      12.41980147      22.53847543
O       12.72003036      15.65634689      20.06313957
H       12.99972559      16.04859903      20.89026754
H       12.57238322      16.40219170      19.48163490
O       27.80925407      26.64050297      24.00515538
H       27.25965520      26.66539075      24.78845195
H       27.37918504      27.23577725      23.39121645
O       12.80091464      18.26474602      25.76337849
H       11.95868345      18.03172931      25.37276144
H       12.87768212      19.20847522      25.62297274
O       24.29670014      27.88143671      26.50705596
H       23.91679071      27.07138933      26.84723812
H       24.11566171      27.85535399      25.56749404
O       28.26976486      20.30059899      14.83895945
H       28.81116370      20.14792921      14.06448474
H       27.68548722      21.01542222      14.58621603
O       18.60712331      16.32479777      12.62837034
H       18.27153610      17.16507303      12.31603949
H       18.60500505      16.40510675      13.58219308
O       26.80175460      28.33073567      22.12726866
H       27.27006694      27.76656061      21.51194607
H       25.89240472      28.03581954      22.07890428
O       26.70247315      28.35855863      19.40761347
H       26.01477350      28.35491119      20.07341204
H       27.22480003      27.57931279      19.59783016
391
Lattice="15.781866235591567 0.0 0.0 0.0 15.781866235591567 0.0 0.0 0.0 15.781866235591567" Properties=species:S:1:pos:R:3 charge=0 spin=4 spin_multiplicity=4 metal=Nd geometry=box boundary=pbc pbc="T T T"
Nd       7.89093312       7.89093312       7.89093312
O        6.88046647       6.38256632       9.38300777
H        6.82604254       6.40542761      10.34519870
O        9.88799930       8.97550901       8.48919878
H       10.02636649       9.78384898       8.99589102
O        6.90433359       8.31472403       5.80059280
H        6.49942035       9.11982200       5.45830852
O        7.78966570       8.80590421      10.20451753
H        8.23407373       9.58098757      10.54799843
H        7.29760243       8.46139542      10.94978209
O        9.54593158       6.30856146       8.86928889
H        9.66735182       5.38292310       8.65790632
H       10.20333404       6.48955443       9.54107411
O        7.80845908      10.32731858       7.38366207
H        8.05992330      11.05343833       7.95440518
H        7.51818356      10.74773302       6.57420320
O        9.56472496       7.82997583       6.04843343
H       10.51570732       7.75075049       6.12318460
H        9.40140925       7.88051539       5.10662370
O        5.44027575       8.28559069       8.08746271
H        4.87361858       8.76453505       7.48269516
H        4.85368255       7.99236752       8.78471476
O        7.19654163       5.78824794       6.75223407
H        6.59859689       5.11550503       7.07798075
H        7.46771395       5.47149208       5.89062910
O        1.36789002       0.27925578       1.80750803
H        1.80141193       1.07887175       2.10567728
H        1.33092891       0.36716710       0.85507046
O        0.47939008      12.89589948       0.60885329
H        0.55090177      13.79140993       0.93927567
H        1.14419732      12.40724196       1.09411303
O        7.90224026      12.71477742       6.04543355
H        7.60553557      13.62369682       6.00000562
H        8.24604263      12.53058296       5.17130303
O        8.88482868       3.95229478      11.39752062
H        8.55441965       4.02643428      12.29282227
H        9.69809471       4.45709884      11.39927284
O       12.43905713       6.68572916      14.27291842
H       13.04210141       6.85563736      13.54924678
H       11.72310762       6.18878994      13.87706548
O        8.28475373       8.05841972       3.26944968
H        8.21355614       8.95424969       2.93982656
H        7.63145811       8.00678691       3.96713925
O       11.24903768      13.16540661       6.31798822
H       10.47570913      13.42780549       5.81864703
H       11.95464700      13.71228329       5.97262866
O        5.16265534       6.67847719       3.19458876
H        4.47552826       6.11728964       3.55397262
H        5.85202991       6.07138329       2.92545768
O        4.06199376       9.29189294       0.27910819
H        3.24183135       9.08470028      -0.16881665
H        4.68186711       9.47383351      -0.42721078
O       10.20129508       2.15001853       0.74071723
H       10.98284151       2.66921483       0.93006407
H       10.15760233       2.12191318      -0.21507190
O       10.07779588       6.01371306       3.32337787
H        9.39583141       6.68062481       3.40328425
H        9.85571642       5.53807768       2.52295078
O       13.20769651      11.50041912       7.30080760
H       13.99804701      11.73096416       6.81251783
H       12.52663550      12.06519226       6.93554189
O        1.68414974       4.50965344       5.46663825
H        2.56542187       4.70727190       5.78371586
H        1.19099935       5.31754365       5.60928446
O        0.74532622      10.91431944      14.54653614
H        0.90195907      10.27071172      15.23752607
H        0.55597815      11.72757588      15.01450315
O       12.61009253      11.32516697       4.54876385
H       12.03705082      11.99907060       4.91442617
H       12.88986568      11.68004859       3.70495233
O        6.80080631       6.45184312       0.12851745
H        6.83779238       6.07948848       1.00954860
H        6.84121465       7.39824608       0.26606903
O        6.52404404       7.06931379      12.09568837
H        6.26666405       6.19168190      12.37808816
H        7.43801751       7.15070661      12.36819444
O       14.04007304      14.20275433       9.99761610
H       13.09272483      14.23465803      10.13082782
H       14.24331162      15.01005297       9.52518111
O       15.29402440       3.81363025      13.16165901
H       14.85856541       3.69912176      14.00634541
H       14.58561312       4.02276651      12.55285089
O        3.19879066      11.59610952       3.28320678
H        4.01969580      11.14258552       3.47468149
H        2.58392196      10.89649563       3.06250623
O       12.11840575      14.00689517       2.39285465
H       11.42689919      14.25899961       3.00481370
H       11.93014288      14.50701829       1.59870996
O       14.31815164      11.84711254       2.19717698
H       13.68592341      12.55380160       2.06637221
H       15.08531180      12.11471365       1.69112681
O        2.48385784       3.66818417      14.21787037
H        2.86063125       4.47740661      13.87228002
H        1.57784783       3.67428375      13.90909783
O        5.56817557      13.32908727       8.36162288
H        6.21002956      12.91777290       7.78276556
H        5.27458886      14.10391174       7.88236750
O        9.97991764       7.49687990       0.43840845
H       10.63352666       8.15623224       0.20542436
H       10.28472290       7.14131424       1.27321301
O        3.61819469      15.09744944       3.91896728
H        3.22689929      14.45914020       4.51535730
H        3.80414666      14.59954092       3.12288888
O        2.54628084       9.10363892       4.16998428
H        3.48049862       9.31199198       4.16237016
H        2.14671326       9.81118559       4.67590452
O        3.08046222      12.89976563      13.45021382
H        2.92296308      13.80465931      13.71964523
H        2.28385155      12.43239584      13.70162735
O        8.38647230       4.41326199       4.72939603
H        9.04236615       5.04605426       4.43680579
H        8.89491342       3.70999398       5.13329400
O       15.00380822      12.16754637      11.53173949
H       15.44560147      13.00605309      11.66574338
H       14.11416416      12.31072081      11.85464251
O       11.30072445      12.47698109       8.99663990
H       11.14163206      12.79806572       8.10904421
H       11.40883926      13.26932466       9.52269569
O        5.90013381       4.01411602       8.47317760
H        6.40094802       4.63701965       8.99987300
H        6.50352285       3.28611897       8.32426884
O        7.26738585      15.34618312       5.77885532
H        7.22495398      16.28612921       5.60297829
H        6.39153546      15.12094306       6.09251890
O       11.85856337      14.82828512      13.00366972
H       12.58759641      15.38959469      12.73971095
H       12.26294453      13.98050663      13.18800461
O        2.48124550      11.64103408       7.51713822
H        3.31852610      11.98199205       7.83168662
H        2.59734923      10.69094907       7.50763858
O       13.93804457       0.54969633      11.91442490
H       14.01976904      -0.24127440      11.38158509
H       14.83993287       0.79114684      12.12544858
O        7.86924130       4.58640646      14.24394653
H        8.51612823       4.18456037      14.82385071
H        7.50182613       5.30641810      14.75660740
O        3.63599165       5.83288292       8.09025864
H        3.93675339       6.21321321       8.91556046
H        3.47861374       4.91097970       8.29411765
O        0.95362153      14.25292219      11.75732672
H        0.78526036      15.14220648      12.06887096
H        1.48840631      13.85516180      12.44436656
O        2.55839480       2.80469032       3.09825029
H        2.32058320       3.34200018       3.85387956
H        3.15799363       3.35346954       2.59272634
O        7.11709821       4.96715988       2.38840042
H        7.51386497       4.69097330       3.21455352
H        6.73959265       4.16657362       2.02400637
O       13.13266080       0.42973497       4.02478671
H       12.68065974      -0.01734916       3.30921514
H       13.31917387      -0.26163809       4.65996228
O       13.62580453      13.78447059       5.14917021
H       14.35968409      13.33668647       5.57005263
H       13.58505557      13.40543124       4.27116079
O        2.71473039       1.79111189       5.61749863
H        2.41766525       2.69706739       5.70252079
H        1.96929421       1.32911571       5.23394124
O        7.34108196      12.81836743      11.17867438
H        7.94205427      12.22591900      10.72693445
H        7.69554356      13.69195629      11.01305035
O        1.26869303       6.95279810       2.98213270
H        1.76490275       7.65739383       3.39872916
H        1.93664693       6.36699987       2.62588859
O       11.47726494       3.27466722       3.58344849
H       10.96200476       2.72035927       4.16952143
H       11.02281775       4.11709336       3.58871954
O        4.44627849       7.12833514      10.34055777
H        3.77277136       7.68740908      10.72792879
H        5.11722922       7.05542025      11.01933636
O        5.40918215       4.67415197      13.08686675
H        6.27034686       4.52533152      13.47735317
H        5.03878557       3.79783627      12.98146745
O        5.77578537       9.28730255      13.94879687
H        5.34042434       8.47021089      13.70578694
H        5.32813475       9.95969132      13.43524639
O        0.81367088       1.96886486       7.55470085
H        0.52427410       2.34477416       6.72333238
H        1.17865520       1.11611998       7.31838655
O        2.40193475       8.25964051       8.00121667
H        1.84645345       8.26184946       8.78074697
H        2.67671078       7.34779824       7.90491689
O       15.07138293      10.18566718       4.21489892
H       15.40576997      10.79111803       4.87659855
H       15.00861184      10.71200329       3.41786572
O        6.68682904       2.19819536       5.42665441
H        5.90911679       2.10968439       4.87569044
H        7.09233176       3.01641843       5.13975653
O        4.66153449       0.05385797       6.38580780
H        4.56466578      -0.31773184       5.50901289
H        4.13746230       0.85460838       6.36634060
O        9.82645226       1.73830372       5.54948268
H        9.89356682       0.87384185       5.14397912
H       10.65394865       1.84860471       6.01779375
O        7.95869845      13.09419033       2.91728153
H        7.93632522      12.13811538       2.87663726
H        7.13587989      13.37085998       2.51397596
O        0.46291760       3.63515688       9.67574928
H        0.58539437       3.07575326       8.90874284
H        0.55957782       3.04365485      10.42208299
O       14.65764254       0.98694005       9.19140184
H       14.63346872       1.12055311      10.13892229
H       15.55380703       1.21067507       8.94027697
O        9.62400516      14.52512597       4.61245895
H        9.38262395      13.77307187       4.07173575
H        8.79668075      14.82577449       4.98845978
O        7.95426750       9.19347101      15.57480042
H        7.25781861       9.04746232      14.93458776
H        8.52728757       8.43214670      15.48388771
O        5.49822076      13.19233190       1.75005345
H        4.81842042      12.66722396       2.17238623
H        5.18886281      14.09462385       1.83004553
O        5.59045746      10.17159495       4.05475181
H        6.34503334       9.98938908       3.49470886
H        5.73425537      11.06452615       4.36816506
O        7.64833297       1.73290366       7.98854202
H        7.91483170       0.82344239       8.12304280
H        7.50205559       1.80311223       7.04519398
O       11.88716746      12.74998469      15.29184004
H       11.46631433      12.20949391      15.96040880
H       11.63610434      13.64634665      15.51485213
O       11.03597926       5.54466757       5.94271252
H       11.97571013       5.72605762       5.92737017
H       10.72605978       5.81063147       5.07700763
O        2.58284956      15.51399995      14.01282345
H        2.25710855      15.40522889      14.90629616
H        1.87122112      15.95642049      13.55013470
O       12.33576794       9.19830571      15.30950928
H       12.35629882       9.27078846      16.26374016
H       12.38913160       8.25791713      15.13905849
O       15.72450712      12.08976257       6.45419305
H       15.80044743      12.01478041       7.40542519
H       16.55716303      12.47146880       6.17631478
O        2.82108104      13.76497513       1.68569279
H        2.42427590      14.63460358       1.73593110
H        3.02335423      13.64673217       0.75761090
O        2.25731505      13.17895492       5.28485391
H        2.72507838      12.76349373       6.00929942
H        2.36547932      12.57399914       4.55098687
O       13.67699527       4.75414981      10.63127526
H       13.88038464       5.49237856      10.05692092
H       14.42890038       4.16821488      10.54437986
O       10.39352073      10.61731516       3.01828090
H       10.87511832       9.99568725       2.47250225
H       11.03675230      10.92414409       3.65729655
O        0.53179894       8.63058555       9.95851416
H        0.40615085       9.54600031       9.70859374
H        0.10372632       8.55368172      10.81119902
O        9.09251396       3.98376316       7.49218244
H        9.13750309       3.13765427       7.04686506
H        9.49510753       4.59915558       6.87944888
O       11.41804849      14.85056356      10.31966041
H       11.35147771      14.59505596      11.23972347
H       11.15545082      15.77094570      10.30658255
O       10.84812738       1.63684673      11.01121048
H       10.13627646       2.27089534      11.09771172
H       11.59899291       2.06086316      11.42671363
O       11.47276243       4.40003639       9.07726693
H       12.34426547       4.50573373       9.45876709
H       11.53959604       3.60969725       8.54142259
O        0.71252812       8.94543536       0.95104129
H        1.43483253       8.67564321       0.38383729
H        0.68098390       8.27586498       1.63435111
O       14.92890856       1.71709993       2.43904159
H       15.53823594       0.99835800       2.27063129
H       14.24759068       1.33025877       2.98894313
O       15.74540314       7.35626456       5.90354706
H       16.15705533       7.22330981       5.04967509
H       16.47470062       7.54064067       6.49546130
O        4.28608310       1.64738786      14.92342916
H        3.68737545       2.36921005      14.73171655
H        3.73062691       0.86783967      14.92121985
O       11.95816074       3.66881580      12.43849198
H       12.53465037       4.05518006      11.77923922
H       11.32329056       4.35757381      12.63542881
O        3.13233981      11.18149510      11.34231072
H        3.11921948      11.83208884      12.04429895
H        4.02322055      10.83166998      11.35593906
O        1.14370473      14.30044077       9.04431284
H        0.72234642      13.46047981       8.86222877
H        1.14138017      14.36811174       9.99911495
O        6.20743047      13.12207168      14.90694613
H        6.26705636      12.17707827      14.76671761
H        5.87502397      13.21164997      15.80009420
O        2.04741277       8.53050528      14.39959796
H        2.77946547       8.03962575      14.02627778
H        1.30458284       7.92891717      14.34932580
O       14.20639204       7.02298607      12.23304015
H       13.95167446       6.17147299      11.87768643
H       13.94064228       7.65213393      11.56238235
O       13.87315975       6.76119068       8.63994937
H       14.56811939       7.32777465       8.97498004
H       13.11859550       7.34132403       8.53841147
O       14.21146572       5.93762621       0.41384130
H       14.16883946       5.00128913       0.21970805
H       13.76279819       6.35575729      -0.32107072
O        0.44063177      11.26173106       9.27503275
H        0.54749077      11.58166213      10.17083245
H        1.24875845      11.51803778       8.83065680
O       14.64530423       4.89494062       3.15832481
H       14.73763738       3.94766549       3.05646088
H       14.38880201       5.20580303       2.29010651
O        8.27980354       8.99223126      12.88184434
H        7.32594670       8.98173803      12.96108367
H        8.47643432       9.82897067      12.46061360
O        0.78291428       1.17634888      12.57307773
H        0.96296409       1.24919863      11.63579079
H        0.40457448       2.02272673      12.81126963
O       10.17146263       1.73464715      13.64707766
H       10.77252894       2.37002043      13.25816645
H        9.69623394       1.36667402      12.90210430
O       12.22109811      12.17689366      12.51673982
H       12.30223153      11.94327758      13.44144125
H       12.11130371      11.33942820      12.06637483
O        7.42354573      10.56109442       2.08333292
H        7.66102661      10.05271541       1.30784246
H        6.61990352      11.01753470       1.83422790
O        5.20052359       2.00535870      10.16841786
H        5.95652951       1.62155303      10.61269265
H        4.52898904       2.06741821      10.84769822
O        8.79873832      15.43660400       9.31375673
H        9.60038167      14.94831221       9.50129580
H        8.19044840      14.77891761       8.97661605
O        3.30012307       3.13998094       8.27430313
H        3.06929358       2.52757442       7.57579913
H        3.94753002       2.67079955       8.80057769
O       12.77581530       9.60673221       2.18055708
H       13.43723252       8.91568892       2.21546100
H       13.27227818      10.40528441       2.00147375
O        9.08402332      11.17699387       9.88785070
H        9.61652716      11.83211737       9.43675791
H        9.52484131      11.04609285      10.72736023
O       14.27036956       3.22201115       0.27110834
H       14.43497476       2.69010616       1.04970583
H       13.76990435       2.64888487      -0.30966069
O        2.36260633       1.03842992       9.72445662
H        2.17417570       0.13815793       9.45943573
H        1.88667175       1.57884573       9.09384670
O       10.37183036      10.59100917       6.35508280
H       10.67085066      11.48288860       6.53219796
H        9.48987931      10.55559572       6.72540708
O        0.14053886       2.32891139       4.89608362
H        0.58895012       3.17456936       4.89141505
H        0.40741456       1.91123803       4.07720746
O        1.75757922       5.94153243      11.50147145
H        2.61387957       6.16546570      11.13700548
H        1.44238993       5.22479856      10.95085350
O       10.18723002       5.57826653      13.22350965
H       10.12304517       6.39737020      12.73240751
H        9.28889187       5.39047218      13.49545393
O       14.18033435       4.40941384       6.34650419
H       14.78874122       4.76556332       6.99398428
H       14.68463361       3.73784770       5.88725152
O        3.20488650       2.27285692      11.99715437
H        3.46818536       1.41773672      12.33726464
H        2.98928018       2.78507687      12.77649799
O        1.25614806       4.73748670       0.61493064
H        1.80231172       4.36863270      -0.07924789
H        0.43959651       4.24025841       0.56760796
O       10.93767274      15.53751610      15.46279602
H       10.75727685      16.20125487      14.79710840
H       10.67103878      15.94529846      16.28672060
O       11.72688706       8.75237030       4.54602771
H       12.17165277       9.24779052       3.85829658
H       11.13274756       9.38422798       4.95097950
O       15.53514992      14.33115459      14.19727397
H       14.58434851      14.44003435      14.17846633
H       15.68865797      13.68014309      14.88200104
O        5.68833619       3.35589318       0.72681521
H        5.09331432       2.72368441       0.32371115
H        6.36402723       3.50501155       0.06542487
O        7.36907374       0.35658815       1.43189056
H        7.53708794      -0.43572725       1.94202718
H        8.23796208       0.71783013       1.25647923
O        5.31306619      14.48436267      11.89267188
H        4.54450077      14.09485487      12.30959239
H        5.81675263      13.73645724      11.57147212
O       11.58786538       9.57025754      11.68021474
H       10.93089003       9.79421911      12.33934784
H       11.07894085       9.28481916      10.92143111
O       11.40982099       1.77881946       8.35361110
H       10.54446022       1.89721692       7.96199316
H       11.25052970       1.79579375       9.29731126
O        4.18388459       7.09514919      13.49161585
H        3.80111879       7.01727529      12.61774067
H        4.72159469       6.30926329      13.58899672
O        7.67625992      15.10432381      13.76169123
H        7.35328314      14.47051186      14.40216001
H        7.06514560      15.03683227      13.02805916
O        9.93463404      10.88501880      13.92185437
H       10.57578845      11.37173331      14.43979437
H        9.42314330      10.39872577      14.56848266
391
Properties=species:S:1:pos:R:3 charge=0 spin=4 spin_multiplicity=4 metal=Nd geometry=box boundary=non-pbc pbc="F F F"
Nd       7.89093312       7.89093312       7.89093312
O        6.88046647       6.38256632       9.38300777
H        6.82604254       6.40542761      10.34519870
O        9.88799930       8.97550901       8.48919878
H       10.02636649       9.78384898       8.99589102
O        6.90433359       8.31472403       5.80059280
H        6.49942035       9.11982200       5.45830852
O        7.78966570       8.80590421      10.20451753
H        8.23407373       9.58098757      10.54799843
H        7.29760243       8.46139542      10.94978209
O        9.54593158       6.30856146       8.86928889
H        9.66735182       5.38292310       8.65790632
H       10.20333404       6.48955443       9.54107411
O        7.80845908      10.32731858       7.38366207
H        8.05992330      11.05343833       7.95440518
H        7.51818356      10.74773302       6.57420320
O        9.56472496       7.82997583       6.04843343
H       10.51570732       7.75075049       6.12318460
H        9.40140925       7.88051539       5.10662370
O        5.44027575       8.28559069       8.08746271
H        4.87361858       8.76453505       7.48269516
H        4.85368255       7.99236752       8.78471476
O        7.19654163       5.78824794       6.75223407
H        6.59859689       5.11550503       7.07798075
H        7.46771395       5.47149208       5.89062910
O        1.36789002       0.27925578       1.80750803
H        1.80141193       1.07887175       2.10567728
H        1.33092891       0.36716710       0.85507046
O        0.47939008      12.89589948       0.60885329
H        0.55090177      13.79140993       0.93927567
H        1.14419732      12.40724196       1.09411303
O        7.90224026      12.71477742       6.04543355
H        7.60553557      13.62369682       6.00000562
H        8.24604263      12.53058296       5.17130303
O        8.88482868       3.95229478      11.39752062
H        8.55441965       4.02643428      12.29282227
H        9.69809471       4.45709884      11.39927284
O       12.43905713       6.68572916      14.27291842
H       13.04210141       6.85563736      13.54924678
H       11.72310762       6.18878994      13.87706548
O        8.28475373       8.05841972       3.26944968
H        8.21355614       8.95424969       2.93982656
H        7.63145811       8.00678691       3.96713925
O       11.24903768      13.16540661       6.31798822
H       10.47570913      13.42780549       5.81864703
H       11.95464700      13.71228329       5.97262866
O        5.16265534       6.67847719       3.19458876
H        4.47552826       6.11728964       3.55397262
H        5.85202991       6.07138329       2.92545768
O        4.06199376       9.29189294       0.27910819
H        3.24183135       9.08470028      -0.16881665
H        4.68186711       9.47383351      -0.42721078
O       10.20129508       2.15001853       0.74071723
H       10.98284151       2.66921483       0.93006407
H       10.15760233       2.12191318      -0.21507190
O       10.07779588       6.01371306       3.32337787
H        9.39583141       6.68062481       3.40328425
H        9.85571642       5.53807768       2.52295078
O       13.20769651      11.50041912       7.30080760
H       13.99804701      11.73096416       6.81251783
H       12.52663550      12.06519226       6.93554189
O        1.68414974       4.50965344       5.46663825
H        2.56542187       4.70727190       5.78371586
H        1.19099935       5.31754365       5.60928446
O        0.74532622      10.91431944      14.54653614
H        0.90195907      10.27071172      15.23752607
H        0.55597815      11.72757588      15.01450315
O       12.61009253      11.32516697       4.54876385
H       12.03705082      11.99907060       4.91442617
H       12.88986568      11.68004859       3.70495233
O        6.80080631       6.45184312       0.12851745
H        6.83779238       6.07948848       1.00954860
H        6.84121465       7.39824608       0.26606903
O        6.52404404       7.06931379      12.09568837
H        6.26666405       6.19168190      12.37808816
H        7.43801751       7.15070661      12.36819444
O       14.04007304      14.20275433       9.99761610
H       13.09272483      14.23465803      10.13082782
H       14.24331162      15.01005297       9.52518111
O       15.29402440       3.81363025      13.16165901
H       14.85856541       3.69912176      14.00634541
H       14.58561312       4.02276651      12.55285089
O        3.19879066      11.59610952       3.28320678
H        4.01969580      11.14258552       3.47468149
H        2.58392196      10.89649563       3.06250623
O       12.11840575      14.00689517       2.39285465
H       11.42689919      14.25899961       3.00481370
H       11.93014288      14.50701829       1.59870996
O       14.31815164      11.84711254       2.19717698
H       13.68592341      12.55380160       2.06637221
H       15.08531180      12.11471365       1.69112681
O        2.48385784       3.66818417      14.21787037
H        2.86063125       4.47740661      13.87228002
H        1.57784783       3.67428375      13.90909783
O        5.56817557      13.32908727       8.36162288
H        6.21002956      12.91777290       7.78276556
H        5.27458886      14.10391174       7.88236750
O        9.97991764       7.49687990       0.43840845
H       10.63352666       8.15623224       0.20542436
H       10.28472290       7.14131424       1.27321301
O        3.61819469      15.09744944       3.91896728
H        3.22689929      14.45914020       4.51535730
H        3.80414666      14.59954092       3.12288888
O        2.54628084       9.10363892       4.16998428
H        3.48049862       9.31199198       4.16237016
H        2.14671326       9.81118559       4.67590452
O        3.08046222      12.89976563      13.45021382
H        2.92296308      13.80465931      13.71964523
H        2.28385155      12.43239584      13.70162735
O        8.38647230       4.41326199       4.72939603
H        9.04236615       5.04605426       4.43680579
H        8.89491342       3.70999398       5.13329400
O       15.00380822      12.16754637      11.53173949
H       15.44560147      13.00605309      11.66574338
H       14.11416416      12.31072081      11.85464251
O       11.30072445      12.47698109       8.99663990
H       11.14163206      12.79806572       8.10904421
H       11.40883926      13.26932466       9.52269569
O        5.90013381       4.01411602       8.47317760
H        6.40094802       4.63701965       8.99987300
H        6.50352285       3.28611897       8.32426884
O        7.26738585      15.34618312       5.77885532
H        7.22495398      16.28612921       5.60297829
H        6.39153546      15.12094306       6.09251890
O       11.85856337      14.82828512      13.00366972
H       12.58759641      15.38959469      12.73971095
H       12.26294453      13.98050663      13.18800461
O        2.48124550      11.64103408       7.51713822
H        3.31852610      11.98199205       7.83168662
H        2.59734923      10.69094907       7.50763858
O       13.93804457       0.54969633      11.91442490
H       14.01976904      -0.24127440      11.38158509
H       14.83993287       0.79114684      12.12544858
O        7.86924130       4.58640646      14.24394653
H        8.51612823       4.18456037      14.82385071
H        7.50182613       5.30641810      14.75660740
O        3.63599165       5.83288292       8.09025864
H        3.93675339       6.21321321       8.91556046
H        3.47861374       4.91097970       8.29411765
O        0.95362153      14.25292219      11.75732672
H        0.78526036      15.14220648      12.06887096
H        1.48840631      13.85516180      12.44436656
O        2.55839480       2.80469032       3.09825029
H        2.32058320       3.34200018       3.85387956
H        3.15799363       3.35346954       2.59272634
O        7.11709821       4.96715988       2.38840042
H        7.51386497       4.69097330       3.21455352
H        6.73959265       4.16657362       2.02400637
O       13.13266080       0.42973497       4.02478671
H       12.68065974      -0.01734916       3.30921514
H       13.31917387      -0.26163809       4.65996228
O       13.62580453      13.78447059       5.14917021
H       14.35968409      13.33668647       5.57005263
H       13.58505557      13.40543124       4.27116079
O        2.71473039       1.79111189       5.61749863
H        2.41766525       2.69706739       5.70252079
H        1.96929421       1.32911571       5.23394124
O        7.34108196      12.81836743      11.17867438
H        7.94205427      12.22591900      10.72693445
H        7.69554356      13.69195629      11.01305035
O        1.26869303       6.95279810       2.98213270
H        1.76490275       7.65739383       3.39872916
H        1.93664693       6.36699987       2.62588859
O       11.47726494       3.27466722       3.58344849
H       10.96200476       2.72035927       4.16952143
H       11.02281775       4.11709336       3.58871954
O        4.44627849       7.12833514      10.34055777
H        3.77277136       7.68740908      10.72792879
H        5.11722922       7.05542025      11.01933636
O        5.40918215       4.67415197      13.08686675
H        6.27034686       4.52533152      13.47735317
H        5.03878557       3.79783627      12.98146745
O        5.77578537       9.28730255      13.94879687
H        5.34042434       8.47021089      13.70578694
H        5.32813475       9.95969132      13.43524639
O        0.81367088       1.96886486       7.55470085
H        0.52427410       2.34477416       6.72333238
H        1.17865520       1.11611998       7.31838655
O        2.40193475       8.25964051       8.00121667
H        1.84645345       8.26184946       8.78074697
H        2.67671078       7.34779824       7.90491689
O       15.07138293      10.18566718       4.21489892
H       15.40576997      10.79111803       4.87659855
H       15.00861184      10.71200329       3.41786572
O        6.68682904       2.19819536       5.42665441
H        5.90911679       2.10968439       4.87569044
H        7.09233176       3.01641843       5.13975653
O        4.66153449       0.05385797       6.38580780
H        4.56466578      -0.31773184       5.50901289
H        4.13746230       0.85460838       6.36634060
O        9.82645226       1.73830372       5.54948268
H        9.89356682       0.87384185       5.14397912
H       10.65394865       1.84860471       6.01779375
O        7.95869845      13.09419033       2.91728153
H        7.93632522      12.13811538       2.87663726
H        7.13587989      13.37085998       2.51397596
O        0.46291760       3.63515688       9.67574928
H        0.58539437       3.07575326       8.90874284
H        0.55957782       3.04365485      10.42208299
O       14.65764254       0.98694005       9.19140184
H       14.63346872       1.12055311      10.13892229
H       15.55380703       1.21067507       8.94027697
O        9.62400516      14.52512597       4.61245895
H        9.38262395      13.77307187       4.07173575
H        8.79668075      14.82577449       4.98845978
O        7.95426750       9.19347101      15.57480042
H        7.25781861       9.04746232      14.93458776
H        8.52728757       8.43214670      15.48388771
O        5.49822076      13.19233190       1.75005345
H        4.81842042      12.66722396       2.17238623
H        5.18886281      14.09462385       1.83004553
O        5.59045746      10.17159495       4.05475181
H        6.34503334       9.98938908       3.49470886
H        5.73425537      11.06452615       4.36816506
O        7.64833297       1.73290366       7.98854202
H        7.91483170       0.82344239       8.12304280
H        7.50205559       1.80311223       7.04519398
O       11.88716746      12.74998469      15.29184004
H       11.46631433      12.20949391      15.96040880
H       11.63610434      13.64634665      15.51485213
O       11.03597926       5.54466757       5.94271252
H       11.97571013       5.72605762       5.92737017
H       10.72605978       5.81063147       5.07700763
O        2.58284956      15.51399995      14.01282345
H        2.25710855      15.40522889      14.90629616
H        1.87122112      15.95642049      13.55013470
O       12.33576794       9.19830571      15.30950928
H       12.35629882       9.27078846      16.26374016
H       12.38913160       8.25791713      15.13905849
O       15.72450712      12.08976257       6.45419305
H       15.80044743      12.01478041       7.40542519
H       16.55716303      12.47146880       6.17631478
O        2.82108104      13.76497513       1.68569279
H        2.42427590      14.63460358       1.73593110
H        3.02335423      13.64673217       0.75761090
O        2.25731505      13.17895492       5.28485391
H        2.72507838      12.76349373       6.00929942
H        2.36547932      12.57399914       4.55098687
O       13.67699527       4.75414981      10.63127526
H       13.88038464       5.49237856      10.05692092
H       14.42890038       4.16821488      10.54437986
O       10.39352073      10.61731516       3.01828090
H       10.87511832       9.99568725       2.47250225
H       11.03675230      10.92414409       3.65729655
O        0.53179894       8.63058555       9.95851416
H        0.40615085       9.54600031       9.70859374
H        0.10372632       8.55368172      10.81119902
O        9.09251396       3.98376316       7.49218244
H        9.13750309       3.13765427       7.04686506
H        9.49510753       4.59915558       6.87944888
O       11.41804849      14.85056356      10.31966041
H       11.35147771      14.59505596      11.23972347
H       11.15545082      15.77094570      10.30658255
O       10.84812738       1.63684673      11.01121048
H       10.13627646       2.27089534      11.09771172
H       11.59899291       2.06086316      11.42671363
O       11.47276243       4.40003639       9.07726693
H       12.34426547       4.50573373       9.45876709
H       11.53959604       3.60969725       8.54142259
O        0.71252812       8.94543536       0.95104129
H        1.43483253       8.67564321       0.38383729
H        0.68098390       8.27586498       1.63435111
O       14.92890856       1.71709993       2.43904159
H       15.53823594       0.99835800       2.27063129
H       14.24759068       1.33025877       2.98894313
O       15.74540314       7.35626456       5.90354706
H       16.15705533       7.22330981       5.04967509
H       16.47470062       7.54064067       6.49546130
O        4.28608310       1.64738786      14.92342916
H        3.68737545       2.36921005      14.73171655
H        3.73062691       0.86783967      14.92121985
O       11.95816074       3.66881580      12.43849198
H       12.53465037       4.05518006      11.77923922
H       11.32329056       4.35757381      12.63542881
O        3.13233981      11.18149510      11.34231072
H        3.11921948      11.83208884      12.04429895
H        4.02322055      10.83166998      11.35593906
O        1.14370473      14.30044077       9.04431284
H        0.72234642      13.46047981       8.86222877
H        1.14138017      14.36811174       9.99911495
O        6.20743047      13.12207168      14.90694613
H        6.26705636      12.17707827      14.76671761
H        5.87502397      13.21164997      15.80009420
O        2.04741277       8.53050528      14.39959796
H        2.77946547       8.03962575      14.02627778
H        1.30458284       7.92891717      14.34932580
O       14.20639204       7.02298607      12.23304015
H       13.95167446       6.17147299      11.87768643
H       13.94064228       7.65213393      11.56238235
O       13.87315975       6.76119068       8.63994937
H       14.56811939       7.32777465       8.97498004
H       13.11859550       7.34132403       8.53841147
O       14.21146572       5.93762621       0.41384130
H       14.16883946       5.00128913       0.21970805
H       13.76279819       6.35575729      -0.32107072
O        0.44063177      11.26173106       9.27503275
H        0.54749077      11.58166213      10.17083245
H        1.24875845      11.51803778       8.83065680
O       14.64530423       4.89494062       3.15832481
H       14.73763738       3.94766549       3.05646088
H       14.38880201       5.20580303       2.29010651
O        8.27980354       8.99223126      12.88184434
H        7.32594670       8.98173803      12.96108367
H        8.47643432       9.82897067      12.46061360
O        0.78291428       1.17634888      12.57307773
H        0.96296409       1.24919863      11.63579079
H        0.40457448       2.02272673      12.81126963
O       10.17146263       1.73464715      13.64707766
H       10.77252894       2.37002043      13.25816645
H        9.69623394       1.36667402      12.90210430
O       12.22109811      12.17689366      12.51673982
H       12.30223153      11.94327758      13.44144125
H       12.11130371      11.33942820      12.06637483
O        7.42354573      10.56109442       2.08333292
H        7.66102661      10.05271541       1.30784246
H        6.61990352      11.01753470       1.83422790
O        5.20052359       2.00535870      10.16841786
H        5.95652951       1.62155303      10.61269265
H        4.52898904       2.06741821      10.84769822
O        8.79873832      15.43660400       9.31375673
H        9.60038167      14.94831221       9.50129580
H        8.19044840      14.77891761       8.97661605
O        3.30012307       3.13998094       8.27430313
H        3.06929358       2.52757442       7.57579913
H        3.94753002       2.67079955       8.80057769
O       12.77581530       9.60673221       2.18055708
H       13.43723252       8.91568892       2.21546100
H       13.27227818      10.40528441       2.00147375
O        9.08402332      11.17699387       9.88785070
H        9.61652716      11.83211737       9.43675791
H        9.52484131      11.04609285      10.72736023
O       14.27036956       3.22201115       0.27110834
H       14.43497476       2.69010616       1.04970583
H       13.76990435       2.64888487      -0.30966069
O        2.36260633       1.03842992       9.72445662
H        2.17417570       0.13815793       9.45943573
H        1.88667175       1.57884573       9.09384670
O       10.37183036      10.59100917       6.35508280
H       10.67085066      11.48288860       6.53219796
H        9.48987931      10.55559572       6.72540708
O        0.14053886       2.32891139       4.89608362
H        0.58895012       3.17456936       4.89141505
H        0.40741456       1.91123803       4.07720746
O        1.75757922       5.94153243      11.50147145
H        2.61387957       6.16546570      11.13700548
H        1.44238993       5.22479856      10.95085350
O       10.18723002       5.57826653      13.22350965
H       10.12304517       6.39737020      12.73240751
H        9.28889187       5.39047218      13.49545393
O       14.18033435       4.40941384       6.34650419
H       14.78874122       4.76556332       6.99398428
H       14.68463361       3.73784770       5.88725152
O        3.20488650       2.27285692      11.99715437
H        3.46818536       1.41773672      12.33726464
H        2.98928018       2.78507687      12.77649799
O        1.25614806       4.73748670       0.61493064
H        1.80231172       4.36863270      -0.07924789
H        0.43959651       4.24025841       0.56760796
O       10.93767274      15.53751610      15.46279602
H       10.75727685      16.20125487      14.79710840
H       10.67103878      15.94529846      16.28672060
O       11.72688706       8.75237030       4.54602771
H       12.17165277       9.24779052       3.85829658
H       11.13274756       9.38422798       4.95097950
O       15.53514992      14.33115459      14.19727397
H       14.58434851      14.44003435      14.17846633
H       15.68865797      13.68014309      14.88200104
O        5.68833619       3.35589318       0.72681521
H        5.09331432       2.72368441       0.32371115
H        6.36402723       3.50501155       0.06542487
O        7.36907374       0.35658815       1.43189056
H        7.53708794      -0.43572725       1.94202718
H        8.23796208       0.71783013       1.25647923
O        5.31306619      14.48436267      11.89267188
H        4.54450077      14.09485487      12.30959239
H        5.81675263      13.73645724      11.57147212
O       11.58786538       9.57025754      11.68021474
H       10.93089003       9.79421911      12.33934784
H       11.07894085       9.28481916      10.92143111
O       11.40982099       1.77881946       8.35361110
H       10.54446022       1.89721692       7.96199316
H       11.25052970       1.79579375       9.29731126
O        4.18388459       7.09514919      13.49161585
H        3.80111879       7.01727529      12.61774067
H        4.72159469       6.30926329      13.58899672
O        7.67625992      15.10432381      13.76169123
H        7.35328314      14.47051186      14.40216001
H        7.06514560      15.03683227      13.02805916
O        9.93463404      10.88501880      13.92185437
H       10.57578845      11.37173331      14.43979437
H        9.42314330      10.39872577      14.56848266
391
Properties=species:S:1:pos:R:3 charge=0 spin=4 spin_multiplicity=4 metal=Nd geometry=droplet boundary=non-pbc droplet_radius=9.7193 pbc="F F F"
Nd       0.00000000       0.00000000       0.00000000
O        2.21601179      -0.03774750      -0.78125980
H        3.02064478       0.30942933      -0.37960074
O       -1.68945197      -1.10349314      -1.20438986
H       -2.63377541      -1.17423052      -1.02398626
O       -0.52655982       1.14124063       1.98564966
H       -0.05875104       1.85613083       2.43217284
O        0.13012315       0.49097069      -2.43764553
H        0.73554341       0.11863204      -3.07878676
H       -0.41406271       1.09435434      -2.94363147
O        0.69912146      -2.28823589      -0.68942419
H        0.15492200      -3.07319766      -0.75198466
H        1.57231920      -2.58009087      -0.95129859
O       -2.02942514       1.41932632      -0.25893320
H       -2.45981511       1.95355712       0.40859490
H       -2.55405864       1.55301370      -1.04831221
O       -1.46042683      -1.35988026       1.48928814
H       -1.60229422      -1.25052887       2.42957946
H       -2.00581903      -2.10917520       1.24983821
O        1.04580453       2.25851286       0.07424672
H        1.97178764       2.47898552      -0.02664393
H        0.61196466       3.10086963       0.21007700
O        1.61480284      -0.52069372       1.82246806
H        1.46300838      -0.48736279       2.76696758
H        2.52650442      -0.79905696       1.73560047
O       -1.60400482       2.44767617       4.11419945
H       -2.54352370       2.61500725       4.03979231
H       -1.22604902       3.29752722       4.34032872
O       -3.35893372      -0.64761035       3.30222558
H       -3.79656877      -1.49570525       3.22845258
H       -2.70381566      -0.77449974       3.98848446
O       -4.21637591      -0.44794341      -0.44064254
H       -5.08681401      -0.07530444      -0.30025181
H       -3.61437220       0.21281871      -0.09827315
O       -3.64410667       3.58176220      -0.59815969
H       -4.04976992       3.64725269      -1.46267121
H       -4.21173588       4.09914458      -0.02689409
O        2.04352888      -2.87575090       3.11408322
H        1.99747982      -2.31389997       3.88766894
H        1.52094964      -2.41942997       2.45460314
O       -0.56620774      -3.59811377       2.85743895
H       -0.49664583      -2.97960801       2.13022261
H       -1.34927948      -3.32171364       3.33349929
O       -1.76186500       3.87254417      -3.38597025
H       -1.49253201       4.16135605      -4.25791020
H       -1.51647444       4.59464554      -2.80753709
O       -2.16652343      -4.22271296      -0.65721021
H       -1.96262932      -3.35040729      -0.99446657
H       -2.47743069      -4.70869041      -1.42101283
O       -0.35277436       1.52403196      -4.90705729
H       -0.90312846       1.22902296      -5.63253085
H       -0.85262958       2.23083219      -4.49863345
O       -0.30626297      -1.18839757       4.72052134
H       -1.09225199      -1.41934967       5.21561146
H       -0.18953154      -1.91164388       4.10446908
O        1.15818207       3.52414979       3.30251252
H        0.47685508       4.13277783       3.58816490
H        1.49375889       3.90357186       2.49031862
O       -3.33202690      -2.24135587      -3.04972722
H       -3.89595651      -2.70254236      -2.42882284
H       -2.60296971      -2.84216341      -3.20379786
O        6.28966011      -3.57633731      -3.45149138
H        7.23135268      -3.61840652      -3.28512691
H        5.98644647      -2.83431269      -2.92833482
O       -0.61667667      -3.76730740      -3.52027003
H       -0.57873398      -2.83217973      -3.31945062
H       -0.77692530      -3.80395159      -4.46324904
O       -4.01894560       1.01070966      -3.24852064
H       -4.75761626       0.82808400      -2.66779233
H       -3.60136901       0.15958283      -3.38059922
O        3.39934760      -3.91485010      -1.66675583
H        3.38222191      -4.22553943      -0.76154277
H        3.89647557      -3.09766494      -1.63064432
O        3.43176909       4.27318062      -0.18881550
H        4.05683962       4.93707398      -0.47995856
H        2.69317135       4.77425422       0.15706087
O        4.01136104      -1.04472436       3.82858020
H        3.66202381      -1.64216229       3.16732135
H        4.54867964      -1.59986964       4.39367692
O        5.32746429      -1.00453057      -1.56985719
H        5.85152835      -0.76975482      -0.80404452
H        4.45668843      -0.65470165      -1.38117497
O       -4.16827439       6.78058488      -1.30738266
H       -4.09535492       7.23268630      -0.46683587
H       -4.04143749       5.85604067      -1.09439854
O        1.29309094       3.63269945      -4.41405745
H        0.42401754       3.90921929      -4.12340292
H        1.89153664       4.26556547      -4.01710004
O        1.31589712       5.75035406       0.83525530
H        0.76730837       4.97554739       0.71295712
H        0.70378923       6.48550036       0.80185335
O       -0.25690119       1.25632114       6.15488145
H       -0.14762412       0.41871954       5.70464383
H       -0.38616342       1.89204363       5.45104906
O        2.31655146      -3.85813047      -4.16129695
H        2.84370259      -3.67675066      -3.38319356
H        1.41264005      -3.84781127      -3.84654384
O        3.37129217      -5.06609117       0.79743914
H        3.83076837      -5.66532210       1.38568717
H        2.71225175      -4.64574635       1.34989530
O       -5.48368371      -2.59743660       1.10277859
H       -6.29763783      -2.81580104       0.64887606
H       -5.11223912      -1.87565172       0.59554359
O       -0.89793392       6.11242279      -1.35829195
H       -1.84691705       6.17277241      -1.46793127
H       -0.70397022       6.69298522      -0.62238626
O        1.71363835      -6.10272253      -1.17685456
H        2.25997199      -5.79962056      -0.45167831
H        2.28487738      -6.68107289      -1.68225408
O       -4.53894438       0.68052193       6.37874924
H       -3.74435555       0.26250980       6.71060206
H       -5.02202969      -0.02706729       5.95192618
O        0.55916702      -3.69016030       5.35628398
H       -0.17579334      -3.27688775       5.80935230
H        0.25028714      -3.81094563       4.45837755
O        4.30529076       2.05899374      -4.45667586
H        3.45671320       2.16222499      -4.88736284
H        4.91310298       1.85944851      -5.16869963
O       -6.23666784      -0.28106281      -2.34772546
H       -7.11825684      -0.65386263      -2.35500360
H       -5.76230452      -0.77355953      -3.01754503
O       -6.92801850       3.91192535       0.39580969
H       -6.23889729       4.42228691       0.82110356
H       -6.84970607       3.03775332       0.77780741
O       -1.59828035      -6.59249982       0.55096487
H       -1.40015456      -6.41554148       1.47056465
H       -1.68550646      -5.72621287       0.15325848
O        4.67512498      -0.93356838      -4.91244761
H        3.81954394      -1.32542357      -4.73734067
H        4.53932208       0.00552078      -4.78634856
O       -4.84084668       3.59797516      -3.41862604
H       -3.98944341       3.99167276      -3.60927366
H       -4.64768124       2.67421491      -3.25866991
O        3.14606475       5.40560229      -3.10539437
H        3.17308022       5.07707845      -2.20674311
H        3.36021576       6.33528878      -3.02758551
O       -6.96999661       0.50793848       0.15038080
H       -7.54902015       0.48690360       0.91230016
H       -7.15038310      -0.31120170      -0.31081538
O        2.52576981       1.50278629       6.39206825
H        1.57630140       1.40667736       6.31787492
H        2.76230311       0.97007393       7.15134513
O        6.31431908       3.26431413      -0.26576749
H        5.41089555       3.57630423      -0.21361448
H        6.34109434       2.73926828      -1.06566860
O        6.33391935       1.15531632      -2.88154217
H        6.00782050       0.36476162      -2.45152515
H        5.58266169       1.48904314      -3.37191976
O       -0.89419063       4.90131634       5.04918991
H       -0.87102981       5.85522494       4.97333610
H       -0.16242126       4.68879863       5.62848400
O        1.91420865      -5.60669271       3.85547482
H        1.89670919      -4.68194120       3.60897887
H        1.02688852      -5.91906428       3.67850354
O       -1.14001246      -6.23208413       3.21985914
H       -0.93145926      -5.30440465       3.10964034
H       -0.82229636      -6.44693716       4.09685771
O       -4.33698500      -5.66086937       0.49446406
H       -3.60048508      -5.22567698       0.06503736
H       -4.93422536      -4.94956493       0.72594143
O       -3.50038012      -5.70630192      -2.50604546
H       -4.30826294      -5.21209379      -2.36706523
H       -3.36694802      -5.68650054      -3.45369287
O       -1.40187386       4.23167478       1.41985653
H       -1.01321812       3.36513252       1.53936830
H       -2.17703291       4.07473574       0.88066230
O       -3.68197252       4.51133043       4.27199207
H       -2.76667974       4.62885345       4.52627403
H       -4.07327544       4.02873278       5.00014959
O       -0.07393955      -6.47691407      -3.21410055
H       -0.16695491      -5.53492394      -3.35634884
H        0.74900013      -6.70482763      -3.64660203
O       -3.66588441       0.73778613      -6.19219180
H       -4.52642680       0.87431845      -6.58849669
H       -3.81064753       0.86455713      -5.25453269
O       -1.23281046      -0.02856705      -7.13817147
H       -1.42509433      -0.58780906      -7.89083815
H       -2.09009458       0.27466832      -6.83926664
O        0.87615855      -2.27490849      -6.82416825
H        1.27460667      -2.20176092      -5.95691951
H        0.22581985      -1.57301682      -6.84945649
O        5.57253730      -3.42244256       3.18355627
H        5.92487165      -2.54190144       3.31293816
H        4.72667891      -3.28233268       2.75796885
O        7.25572237       0.07022484       0.82186832
H        7.90957719       0.73955000       1.02363436
H        7.71354911      -0.54878235       0.25313585
O       -6.37720492       1.59230155       3.33267397
H       -6.17113251       2.38213989       2.83275258
H       -7.22228673       1.30377219       2.98797210
O        1.32880393       0.88352451      -7.20633404
H        0.88871342       0.11072415      -7.56035634
H        0.89757897       1.04162802      -6.36652445
O        5.99588271      -4.35547105       0.44684099
H        5.82656829      -3.98691032       1.31386317
H        6.94915739      -4.42740864       0.39863088
O       -5.68201225      -2.05599202      -4.40660986
H       -4.79778972      -2.05161793      -4.04005397
H       -5.65360729      -2.72164513      -5.09387323
O        1.37977592       3.96283312       6.20967472
H        1.53185805       3.81080441       5.27694210
H        2.22636264       4.25667143       6.54609976
O        4.33858508       5.38624261       2.95255517
H        4.79557378       5.88002167       2.27169145
H        3.88648513       6.05274724       3.46986460
O       -4.54248231       5.71941437       1.91316507
H       -4.50469499       6.65232846       2.12405668
H       -4.26094702       5.28034062       2.71577578
O       -1.13461153      -4.02917014      -6.29685676
H       -1.55584177      -4.12154443      -7.15141157
H       -0.42038031      -3.40985800      -6.44705023
O       -6.06190679      -3.04862380       3.73461920
H       -5.22498553      -3.24424362       4.15595936
H       -5.83315560      -2.85256209       2.82606841
O       -1.81867335      -0.78442516       7.62779692
H       -1.34998743      -0.08731072       7.16888866
H       -2.36963213      -0.32591358       8.26218119
O       -3.85789150      -6.16897870       3.13296049
H       -3.95334614      -6.09862742       2.18313369
H       -2.91939372      -6.29702543       3.27101043
O       -0.56354090       7.90210403       0.66250586
H       -1.24256138       8.44907313       1.05745880
H       -0.16224134       8.46088402      -0.00304311
O       -2.45808694      -4.49360135       6.17368712
H       -3.15730617      -4.67595292       5.54593541
H       -1.65088737      -4.58823548       5.66801423
O        4.51153835       1.73659298       1.70450242
H        4.24183720       0.94745638       1.23465505
H        5.10552116       2.18367310       1.10156327
O       -0.56462667       2.90525071      -7.53932491
H        0.35940897       2.94625118      -7.29293307
H       -0.76158923       1.96930181      -7.57723602
O        4.06909235      -6.74265829      -2.37715510
H        4.97517771      -6.87257986      -2.65708642
H        4.03174196      -5.82641496      -2.10268298
O       -2.89833831      -5.75857747      -5.15807750
H       -3.60256247      -5.51208424      -5.75769509
H       -2.24684639      -5.06397164      -5.25458061
O        3.27527423       7.62666997      -0.51307791
H        4.12759379       7.35411487      -0.17322951
H        2.64086676       7.12999949       0.00371744
O        5.34673227       2.78349667       4.85209164
H        5.92384498       3.19358693       4.20788769
H        5.93266332       2.26499267       5.40351728
O        1.87592698       4.02766785      -7.04135684
H        1.69054426       3.91619443      -6.10891984
H        2.55873711       4.69779644      -7.07185008
O        6.81938568      -1.47337107       4.61355258
H        6.43566933      -0.72940791       4.14931943
H        7.02628131      -1.13244640       5.48372291
O       -2.03215604       2.38437429       7.87982984
H       -1.41447507       1.97623459       7.27309758
H       -2.33502548       1.66505620       8.43398092
O        4.52221729      -5.27962575       4.87269647
H        4.90251819      -4.58556913       4.33428354
H        3.62743108      -5.37374694       4.54599986
O       -7.44258325       2.36487643      -3.57888461
H       -7.15173393       1.49229866      -3.31384399
H       -6.64655285       2.89636199      -3.56936977
O        4.62200403      -6.87917743       2.39332073
H        4.67476109      -6.37863197       3.20750915
H        4.91856213      -7.75744955       2.63190658
O        7.21816538       4.12093488       2.50213893
H        6.61550601       4.74616327       2.90478392
H        6.90609979       4.03269968       1.60154942
O       -3.49669160      -7.89780786      -0.89493089
H       -3.59169360      -7.08050821      -1.38404002
H       -2.72098575      -7.76294036      -0.35057527
O       -3.18225574       6.47323342      -4.98009045
H       -4.10980788       6.47465501      -5.21647327
H       -2.75086068       6.01894171      -5.70379562
O        7.32196538      -0.30648618      -4.95219330
H        6.49771323      -0.78655365      -5.03203974
H        7.20600972       0.24207774      -4.17639452
O        8.70524977       0.99478610      -1.28844225
H        7.85643052       1.21405556      -1.67270600
H        8.82248535       1.63344957      -0.58516661
O        0.14572095      -8.60499527       2.14429465
H        0.51645850      -8.47988665       1.27071962
H       -0.26401158      -7.76561982       2.35357905
O       -0.21815388      -6.58062333      -5.96908657
H        0.66131671      -6.55304035      -5.59225436
H       -0.54184630      -5.68339067      -5.88890802
O        2.10830225      -7.24047690      -4.72384897
H        2.70555477      -7.09683218      -3.98975942
H        1.84618774      -8.15762502      -4.64405450
O       -8.60563385       0.36746870       2.36712261
H       -8.08444912      -0.40191981       2.59655590
H       -9.31004985       0.38208051       3.01505504
O        5.92630853       1.40611314      -6.54102408
H        6.55622106       0.93849971      -5.99259019
H        6.43859101       1.70742385      -7.29136424
O       -2.05064659       5.13209057      -7.05835813
H       -2.88008196       4.96791967      -7.50704144
H       -1.53396929       4.34111582      -7.21209605
O        8.74152381      -2.05011519      -0.42631849
H        9.38292367      -1.64263055       0.15574193
H        8.92856604      -1.67749893      -1.28794728
O       -5.88400244      -2.49837263       6.39910683
H       -4.97851393      -2.28459127       6.17411814
H       -6.35018302      -2.47793342       5.56334984
O        1.87920379      -5.90729659       6.55858635
H        1.45086471      -5.18277278       6.10271059
H        1.84298522      -6.63578572       5.93872858
O       -8.15136936      -2.14857632      -3.26989907
H       -7.28081040      -2.18810327      -3.66587453
H       -8.62242994      -1.49784650      -3.79036470
O       -5.86422018       3.47977923      -5.93599300
H       -5.47585705       3.52760767      -5.06242654
H       -6.76384518       3.19071965      -5.78318186
O        0.24493317       8.60025107      -2.80783357
H        0.00025242       7.78170308      -2.37615968
H       -0.02525408       8.48145614      -3.71839299
O       -7.28934182      -4.79325300      -2.40988404
H       -7.57019422      -3.91995587      -2.68320782
H       -6.73901926      -4.63899492      -1.64204202
O        5.89312657      -0.28276920       6.87693749
H        5.35835533      -0.09267904       7.64772753
H        5.26108380      -0.52515837       6.20017958
O       -4.33866030      -2.14211553      -7.71149918
H       -3.66492450      -2.34196653      -8.36140032
H       -4.06446703      -1.30801546      -7.33028144
O        2.19798442       6.54727330       5.97936083
H        1.87517411       7.36029650       5.59074970
H        1.51675826       5.90269785       5.78782690
O        2.74450764      -3.03720260       8.24410079
H        2.30191383      -2.33630900       7.76546659
H        2.50213549      -3.83686542       7.77716722
O        6.55072711       6.16860831      -1.89272137
H        6.74742869       6.34023857      -2.81363580
H        6.55675978       5.21420437      -1.81986141
O        5.74505384       7.16617973       0.52929342
H        6.03652948       8.07779187       0.51389534
H        6.03466808       6.80742218      -0.30954414
O       -7.00072388      -5.89278124       0.99358443
H       -6.21478504      -6.41724916       0.84040030
H       -7.16289798      -5.97235931       1.93358376
O        8.04394355      -4.06201112       2.24350712
H        8.59001528      -4.52223639       2.88086903
H        7.21742441      -3.90927550       2.70151343
O        8.79729161      -0.93017607       2.82715192
H        8.66227901       0.00564607       2.97628395
H        8.04515173      -1.35058830       3.24401041
O        6.51640349      -6.60445214      -1.19222214
H        6.18900478      -5.90086854      -0.63185437
H        6.76022816      -7.30204384      -0.58382490
O        3.50956112       8.10010097      -3.18252748
H        2.63856186       8.38475667      -3.45922817
H        3.48170808       8.13723545      -2.22645370
O        0.60801806      -9.02846942      -2.56379360
H        0.90714520      -9.01120730      -1.65469690
H        0.09212127      -8.22818670      -2.66192574
O        1.36750448      -8.18244236       4.53745319
H        0.92988374      -8.46176603       3.73327771
H        2.30108052      -8.27325625       4.34661175
O        8.59410569       1.94468722       3.56747673
H        9.21094249       2.25925052       4.22838075
H        8.09149577       2.72069944       3.31964585
O       -7.24317210      -0.69902569      -6.17290485
H       -7.78447282      -0.07236078      -5.69278356
H       -6.69272640      -1.10375777      -5.50250697
O        9.16854271       2.45601453       0.95846032
H        8.50841244       2.99133636       1.39879020
H        9.99153255       2.68777336       1.38881762
O       -4.68386005      -4.72466381      -6.93050081
H       -4.57337361      -3.80630166      -7.17674367
H       -4.79013797      -5.18520015      -7.76287280
O       -3.46993070       7.72711136       4.54359460
H       -3.53274172       6.77625970       4.45321901
H       -4.20774212       7.96403174       5.10549750
O        4.69911223      -8.40029509      -0.25905516
H        4.63194249      -7.62981539      -0.82304195
H        4.75282662      -8.04448833       0.62793309
O        9.11733145      -1.11639348      -2.95324001
H        8.87037136      -0.97200860      -3.86669256
H        9.13198496      -0.24057628      -2.56728490
O       -2.05180737      -3.19006887       8.90661266
H       -2.07953798      -2.28838709       8.58656138
H       -2.20294390      -3.72586548       8.12795254
O        2.16006710      -5.33693909      -7.79931591
H        1.49089901      -5.75901056      -7.26051949
H        1.85618390      -4.43443059      -7.89609013
O        6.29897339       5.78743360      -4.57476851
H        5.44008160       5.71639486      -4.15824692
H        6.69747796       4.92590917      -4.45147373
O        8.44635915      -4.72764638      -0.80328604
H        9.35470024      -5.02808347      -0.83304944
H        8.51084217      -3.77900283      -0.69306263
O       -0.70669315       7.94284470      -5.55664913
H       -1.50123568       7.46579418      -5.31715632
H       -0.16434566       7.29513414      -6.00671809
391
Lattice="41.3015823980253 0.0 0.0 0.0 41.3015823980253 0.0 0.0 0.0 41.3015823980253" Properties=species:S:1:pos:R:3 charge=0 spin=4 spin_multiplicity=4 metal=Nd geometry=droplet boundary=pbc droplet_radius=9.7193 pbc="T T T"
Nd      20.31004985      20.86490037      20.37818503
O       22.52606164      20.82715287      19.59692523
H       23.33069463      21.17432970      19.99858429
O       18.62059788      19.76140724      19.17379517
H       17.67627444      19.69066986      19.35419877
O       19.78349003      22.00614101      22.36383469
H       20.25129881      22.72103121      22.81035787
O       20.44017300      21.35587106      17.94053949
H       21.04559326      20.98353241      17.29939827
H       19.89598714      21.95925471      17.43455356
O       21.00917131      18.57666449      19.68876084
H       20.46497185      17.79170272      19.62620037
H       21.88236906      18.28480950      19.42688644
O       18.28062471      22.28422669      20.11925182
H       17.85023474      22.81845749      20.78677992
H       17.75599121      22.41791408      19.32987282
O       18.84962302      19.50502012      21.86747317
H       18.70775563      19.61437150      22.80776448
H       18.30423082      18.75572517      21.62802324
O       21.35585438      23.12341323      20.45243175
H       22.28183749      23.34388589      20.35154109
H       20.92201451      23.96577001      20.58826203
O       21.92485269      20.34420665      22.20065309
H       21.77305823      20.37753758      23.14515260
H       22.83655427      20.06584341      22.11378550
O       18.70604503      23.31257654      24.49238448
H       17.76652615      23.47990762      24.41797734
H       19.08400084      24.16242759      24.71851375
O       16.95111613      20.21729002      23.68041060
H       16.51348108      19.36919513      23.60663761
H       17.60623419      20.09040063      24.36666949
O       16.09367394      20.41695696      19.93754249
H       15.22323585      20.78959593      20.07793322
H       16.69567765      21.07771908      20.27991188
O       16.66594318      24.44666258      19.78002533
H       16.26027993      24.51215306      18.91551382
H       16.09831397      24.96404495      20.35129094
O       22.35357873      17.98914948      23.49226825
H       22.30752967      18.55100040      24.26585397
H       21.83099949      18.44547040      22.83278816
O       19.74384211      17.26678660      23.23562398
H       19.81340402      17.88529236      22.50840763
H       18.96077037      17.54318673      23.71168432
O       18.54818485      24.73744455      16.99221478
H       18.81751784      25.02625642      16.12027482
H       18.79357541      25.45954592      17.57064794
O       18.14352642      16.64218742      19.72097481
H       18.34742054      17.51449309      19.38371846
H       17.83261916      16.15620997      18.95717220
O       19.95727549      22.38893233      15.47112774
H       19.40692139      22.09392333      14.74565417
H       19.45742027      23.09573257      15.87955157
O       20.00378688      19.67650280      25.09870636
H       19.21779787      19.44555070      25.59379649
H       20.12051831      18.95325649      24.48265411
O       21.46823192      24.38905016      23.68069755
H       20.78690493      24.99767820      23.96634993
H       21.80380874      24.76847224      22.86850365
O       16.97802295      18.62354450      17.32845781
H       16.41409334      18.16235802      17.94936219
H       17.70708014      18.02273697      17.17438717
O       26.59970996      17.28856307      16.92669364
H       27.54140253      17.24649386      17.09305812
H       26.29649632      18.03058768      17.44985021
O       19.69337318      17.09759298      16.85791500
H       19.73131587      18.03272065      17.05873440
H       19.53312455      17.06094878      15.91493598
O       16.29110425      21.87561003      17.12966439
H       15.55243359      21.69298438      17.71039270
H       16.70868085      21.02448321      16.99758581
O       23.70939745      16.95005028      18.71142919
H       23.69227176      16.63936094      19.61664226
H       24.20652542      17.76723544      18.74754071
O       23.74181894      25.13808099      20.18936953
H       24.36688947      25.80197435      19.89822646
H       23.00322120      25.63915459      20.53524590
O       24.32141089      19.82017601      24.20676523
H       23.97207366      19.22273809      23.54550638
H       24.85872949      19.26503074      24.77186194
O       25.63751414      19.86036980      18.80832784
H       26.16157820      20.09514555      19.57414051
H       24.76673829      20.21019873      18.99701006
O       16.14177546      27.64548525      19.07080237
H       16.21469493      28.09758667      19.91134916
H       16.26861236      26.72094104      19.28378649
O       21.60314079      24.49759982      15.96412758
H       20.73406740      24.77411966      16.25478211
H       22.20158649      25.13046584      16.36108499
O       21.62594697      26.61525443      21.21344033
H       21.07735822      25.84044777      21.09114214
H       21.01383908      27.35040074      21.18003837
O       20.05314866      22.12122152      26.53306647
H       20.16242573      21.28361991      26.08282886
H       19.92388643      22.75694400      25.82923408
O       22.62660131      17.00676990      16.21688807
H       23.15375244      17.18814971      16.99499147
H       21.72268990      17.01708910      16.53164119
O       23.68134202      15.79880920      21.17562417
H       24.14081822      15.19957827      21.76387220
H       23.02230160      16.21915402      21.72808033
O       14.82636614      18.26746377      21.48096361
H       14.01241202      18.04909934      21.02706109
H       15.19781073      18.98924865      20.97372862
O       19.41211593      26.97732316      19.01989307
H       18.46313280      27.03767278      18.91025375
H       19.60607963      27.55788559      19.75579876
O       22.02368820      14.76217784      19.20133047
H       22.57002184      15.06527981      19.92650671
H       22.59492723      14.18382749      18.69593095
O       15.77110547      21.54542230      26.75693426
H       16.56569430      21.12741018      27.08878709
H       15.28802017      20.83783308      26.33011120
O       20.86921687      17.17474008      25.73446901
H       20.13425651      17.58801262      26.18753733
H       20.56033700      17.05395474      24.83656257
O       24.61534061      22.92389411      15.92150916
H       23.76676305      23.02712537      15.49082218
H       25.22315284      22.72434888      15.20948540
O       14.07338201      20.58383756      18.03045957
H       13.19179301      20.21103774      18.02318142
H       14.54774533      20.09134084      17.36063999
O       13.38203135      24.77682573      20.77399472
H       14.07115256      25.28718729      21.19928858
H       13.46034378      23.90265369      21.15599244
O       18.71176950      14.27240056      20.92914989
H       18.90989529      14.44935889      21.84874968
H       18.62454340      15.13868750      20.53144350
O       24.98517483      19.93133199      15.46573741
H       24.12959380      19.53947680      15.64084436
H       24.84937193      20.87042115      15.59183646
O       15.46920317      24.46287553      16.95955898
H       16.32060644      24.85657313      16.76891137
H       15.66236861      23.53911529      17.11951511
O       23.45611460      26.27050266      17.27279066
H       23.48313007      25.94197882      18.17144192
H       23.67026561      27.20018915      17.35059952
O       13.34005325      21.37283886      20.52856583
H       12.76102970      21.35180398      21.29048519
H       13.15966675      20.55369867      20.06736965
O       22.83581966      22.36768666      26.77025328
H       21.88635125      22.27157773      26.69605995
H       23.07235296      21.83497430      27.52953016
O       26.62436894      24.12921451      20.11241754
H       25.72094540      24.44120460      20.16457055
H       26.65114419      23.60416865      19.31251643
O       26.64396920      22.02021669      17.49664285
H       26.31787035      21.22966199      17.92665988
H       25.89271154      22.35394351      17.00626527
O       19.41585922      25.76621671      25.42737494
H       19.43902005      26.72012531      25.35152113
H       20.14762859      25.55369900      26.00666903
O       22.22425850      15.25820766      24.23365984
H       22.20675904      16.18295917      23.98716389
H       21.33693837      14.94583609      24.05668857
O       19.17003740      14.63281624      23.59804417
H       19.37859059      15.56049572      23.48782537
H       19.48775349      14.41796322      24.47504274
O       15.97306485      15.20403100      20.87264909
H       16.70956477      15.63922339      20.44322239
H       15.37582449      15.91533545      21.10412645
O       16.80966973      15.15859845      17.87213957
H       16.00178691      15.65280659      18.01111980
H       16.94310183      15.17839983      16.92449215
O       18.90817599      25.09657516      21.79804156
H       19.29683173      24.23003289      21.91755332
H       18.13301694      24.93963612      21.25884733
O       16.62807734      25.37623081      24.65017710
H       17.54337011      25.49375383      24.90445906
H       16.23677441      24.89363315      25.37833462
O       20.23611030      14.38798630      17.16408448
H       20.14309494      15.32997643      17.02183618
H       21.05904998      14.16007274      16.73158300
O       16.64416544      21.60268651      14.18599323
H       15.78362305      21.73921882      13.78968834
H       16.49940232      21.72945751      15.12365233
O       19.07723939      20.83633333      13.24001355
H       18.88495552      20.27709131      12.48734688
H       18.21995528      21.13956869      13.53891839
O       21.18620840      18.58999188      13.55401678
H       21.58465652      18.66313946      14.42126552
H       20.53586970      19.29188356      13.52872854
O       25.88258715      17.44245781      23.56174130
H       26.23492150      18.32299894      23.69112319
H       25.03672876      17.58256770      23.13615388
O       27.56577222      20.93512521      21.20005335
H       28.21962705      21.60445037      21.40181939
H       28.02359896      20.31611803      20.63132088
O       13.93284493      22.45720192      23.71085900
H       14.13891735      23.24704026      23.21093760
H       13.08776312      22.16867256      23.36615712
O       21.63885379      21.74842488      13.17185099
H       21.19876327      20.97562453      12.81782869
H       21.20762882      21.90652840      14.01166058
O       26.30593257      16.50942933      20.82502601
H       26.13661814      16.87799005      21.69204819
H       27.25920724      16.43749174      20.77681591
O       14.62803760      18.80890835      15.97157517
H       15.51226014      18.81328244      16.33813105
H       14.65644256      18.14325525      15.28431180
O       21.68982577      24.82773349      26.58785975
H       21.84190790      24.67570478      25.65512713
H       22.53641249      25.12157180      26.92428479
O       24.64863493      26.25114298      23.33074020
H       25.10562363      26.74492205      22.64987648
H       24.19653499      26.91764762      23.84804963
O       15.76756754      26.58431475      22.29135009
H       15.80535486      27.51722883      22.50224170
H       16.04910283      26.14524100      23.09396081
O       19.17543833      16.83573023      14.08132826
H       18.75420808      16.74335595      13.22677346
H       19.88966954      17.45504237      13.93113480
O       14.24814306      17.81627657      24.11280423
H       15.08506432      17.62065675      24.53414439
H       14.47689425      18.01233829      23.20425344
O       18.49137650      20.08047521      28.00598195
H       18.96006242      20.77758966      27.54707369
H       17.94041772      20.53898679      28.64036622
O       16.45215835      14.69592167      23.51114552
H       16.35670371      14.76627295      22.56131872
H       17.39065613      14.56787495      23.64919546
O       19.74650895      28.76700441      21.04069088
H       19.06748847      29.31397350      21.43564383
H       20.14780851      29.32578440      20.37514192
O       17.85196291      16.37129902      26.55187215
H       17.15274368      16.18894745      25.92412044
H       18.65916248      16.27666489      26.04619926
O       24.82158820      22.60149335      22.08268745
H       24.55188705      21.81235675      21.61284007
H       25.41557101      23.04857347      21.47974830
O       19.74542318      23.77015108      12.83886012
H       20.66945882      23.81115155      13.08525196
H       19.54846063      22.83420218      12.80094901
O       24.37914220      14.12224208      18.00102993
H       25.28522756      13.99232051      17.72109860
H       24.34179181      15.03848542      18.27550204
O       17.41171155      15.10632290      15.22010753
H       16.70748738      15.35281613      14.62048994
H       18.06320347      15.80092874      15.12360442
O       23.58532408      28.49157034      19.86510712
H       24.43764364      28.21901525      20.20495552
H       22.95091661      27.99489986      20.38190246
O       25.65678212      23.64839705      25.23027666
H       26.23389484      24.05848731      24.58607271
H       26.24271317      23.12989304      25.78170230
O       22.18597683      24.89256822      13.33682818
H       22.00059411      24.78109480      14.26926518
H       22.86878697      25.56269681      13.30633494
O       27.12943553      19.39152930      24.99173761
H       26.74571918      20.13549247      24.52750446
H       27.33633116      19.73245397      25.86190794
O       18.27789381      23.24927467      28.25801487
H       18.89557479      22.84113496      27.65128261
H       17.97502437      22.52995657      28.81216595
O       24.83226714      15.58527463      25.25088150
H       25.21256804      16.27933124      24.71246857
H       23.93748093      15.49115343      24.92418488
O       12.86746660      23.22977681      16.79930041
H       13.15831592      22.35719903      17.06434104
H       13.66349701      23.76126236      16.80881526
O       24.93205388      13.98572295      22.77150576
H       24.98481095      14.48626840      23.58569418
H       25.22861198      13.10745082      23.01009161
O       27.52821523      24.98583525      22.88032395
H       26.92555586      25.61106364      23.28296894
H       27.21614964      24.89760005      21.97973445
O       16.81335825      12.96709251      19.48325414
H       16.71835625      13.78439216      18.99414501
H       17.58906410      13.10196001      20.02760976
O       17.12779411      27.33813380      15.39809458
H       16.20024197      27.33955538      15.16171176
H       17.55918917      26.88384209      14.67438941
O       27.63201523      20.55841419      15.42599173
H       26.80776308      20.07834673      15.34614529
H       27.51605957      21.10697811      16.20179051
O       29.01529962      21.85968648      19.08974277
H       28.16648037      22.07895593      18.70547903
H       29.13253520      22.49834995      19.79301841
O       20.45577080      12.25990510      22.52247968
H       20.82650835      12.38501373      21.64890464
H       20.04603827      13.09928055      22.73176408
O       20.09189597      14.28427704      14.40909846
H       20.97136656      14.31186002      14.78593066
H       19.76820355      15.18150971      14.48927701
O       22.41835210      13.62442347      15.65433606
H       23.01560462      13.76806820      16.38842560
H       22.15623759      12.70727536      15.73413053
O       11.70441600      21.23236907      22.74530763
H       12.22560074      20.46298056      22.97474093
H       11.00000000      21.24698088      23.39324006
O       26.23635838      22.27101351      13.83716094
H       26.86627091      21.80340008      14.38559483
H       26.74864086      22.57232423      13.08682079
O       18.25940326      25.99699094      13.31982690
H       17.42996789      25.83282005      12.87114359
H       18.77608056      25.20601619      13.16608898
O       29.05157366      18.81478519      19.95186654
H       29.69297352      19.22226982      20.53392696
H       29.23861589      19.18740144      19.09023775
O       14.42604741      18.36652774      26.77729186
H       15.33153592      18.58030911      26.55230316
H       13.95986684      18.38696695      25.94153486
O       22.18925364      14.95760378      26.93677138
H       21.76091456      15.68212760      26.48089562
H       22.15303507      14.22911466      26.31691361
O       12.15868049      18.71632405      17.10828595
H       13.02923945      18.67679710      16.71231049
H       11.68761992      19.36705388      16.58782033
O       14.44582967      24.34467960      14.44219202
H       14.83419280      24.39250804      15.31575848
H       13.54620467      24.05562002      14.59500317
O       20.55498302      29.46515145      17.57035145
H       20.31030227      28.64660345      18.00202534
H       20.28479577      29.34635651      16.65979203
O       13.02070803      16.07164737      17.96830099
H       12.73985563      16.94494450      17.69497721
H       13.57103059      16.22590545      18.73614300
O       26.20317642      20.58213117      27.25512252
H       25.66840518      20.77222133      28.02591256
H       25.57113365      20.33974200      26.57836461
O       15.97138955      18.72278485      12.66668584
H       16.64512535      18.52293384      12.01678471
H       16.24558282      19.55688491      13.04790359
O       22.50803427      27.41217367      26.35754586
H       22.18522396      28.22519688      25.96893473
H       21.82680811      26.76759822      26.16601193
O       23.05455750      17.82769777      28.62228582
H       22.61196368      18.52859138      28.14365161
H       22.81218534      17.02803495      28.15535225
O       26.86077696      27.03350868      18.48546365
H       27.05747854      27.20513895      17.56454923
H       26.86680963      26.07910474      18.55832361
O       26.05510369      28.03108010      20.90747845
H       26.34657933      28.94269224      20.89208037
H       26.34471793      27.67232255      20.06864089
O       13.30932598      14.97211914      21.37176946
H       14.09526482      14.44765121      21.21858533
H       13.14715187      14.89254106      22.31176878
O       28.35399340      16.80288925      22.62169215
H       28.90006513      16.34266399      23.25905406
H       27.52747426      16.95562488      23.07969845
O       29.10734146      19.93472430      23.20533694
H       28.97232886      20.87054644      23.35446897
H       28.35520158      19.51431208      23.62219544
O       26.82645334      14.26044823      19.18596289
H       26.49905463      14.96403183      19.74633066
H       27.07027801      13.56285654      19.79436013
O       23.81961097      28.96500135      17.19565755
H       22.94861171      29.24965704      16.91895686
H       23.79175793      29.00213583      18.15173133
O       20.91806791      11.83643095      17.81439142
H       21.21719505      11.85369307      18.72348813
H       20.40217113      12.63671367      17.71625929
O       21.67755433      12.68245802      24.91563822
H       21.23993359      12.40313435      24.11146273
H       22.61113037      12.59164412      24.72479678
O       28.90415554      22.80958760      23.94566176
H       29.52099234      23.12415090      24.60656578
H       28.40154562      23.58559982      23.69783087
O       13.06687776      20.16587468      14.20528018
H       12.52557703      20.79253959      14.68540147
H       13.61732346      19.76114260      14.87567806
O       29.47859256      23.32091490      21.33664534
H       28.81846229      23.85623673      21.77697523
H       30.30158240      23.55267374      21.76700264
O       15.62618980      16.14023657      13.44768421
H       15.73667624      17.05859872      13.20144135
H       15.51991188      15.67970022      12.61531223
O       16.84011915      28.59201173      24.92177962
H       16.77730814      27.64116007      24.83140404
H       16.10230773      28.82893211      25.48368253
O       25.00916208      12.46460529      20.11912986
H       24.94199234      13.23508498      19.55514307
H       25.06287647      12.82041204      21.00611812
O       29.42738130      19.74850689      17.42494501
H       29.18042121      19.89289177      16.51149246
H       29.44203481      20.62432409      17.81090013
O       18.25824248      17.67483150      29.28479769
H       18.23051187      18.57651328      28.96474640
H       18.10710595      17.13903490      28.50613757
O       22.47011695      15.52796128      12.57886912
H       21.80094886      15.10588981      13.11766554
H       22.16623375      16.43046978      12.48209489
O       26.60902324      26.65233397      15.80341652
H       25.75013145      26.58129523      16.21993810
H       27.00752781      25.79080955      15.92671130
O       28.75640900      16.13725399      19.57489898
H       29.66475009      15.83681690      19.54513559
H       28.82089202      17.08589754      19.68512240
O       19.60335670      28.80774508      14.82153590
H       18.80881417      28.33069455      15.06102871
H       20.14570419      28.16003451      14.37146694
391
Lattice="15.781866235591567 0.0 0.0 0.0 15.781866235591567 0.0 0.0 0.0 15.781866235591567" Properties=species:S:1:pos:R:3 charge=0 spin=8 spin_multiplicity=8 metal=Gd geometry=box boundary=pbc pbc="T T T"
Gd       7.89093312       7.89093312       7.89093312
O        6.98436834       6.87321839       6.07563782
H        6.48367724       6.05196430       6.01124721
O        6.77130274       9.57203385       8.92690037
H        7.09812440      10.26831578       9.50799854
O        9.91712827       7.22754712       8.67026116
H       10.31207812       7.33835692       9.54263253
O        7.01409127       9.48817205       6.31356944
H        7.46901930      10.23213685       5.91886866
H        6.13283454       9.52079977       5.94134124
O        5.57053000       7.34048750       8.23855213
H        4.89341723       7.21040537       7.57460275
H        5.11944105       7.20293782       9.07151713
O        9.32797301       9.76772947       8.36066900
H        9.81389648      10.30466338       7.73471996
H        9.54075179      10.14331151       9.21500802
O        7.88441174       7.62004491      10.28565169
H        8.63263540       7.65701696      10.88149249
H        7.13301732       7.45136449      10.85414547
O        9.49607698       7.63842466       6.11108687
H        9.32809204       7.61974042       5.16892776
H       10.44449790       7.53433693       6.18786809
O        8.05251571       5.49074011       8.03606956
H        8.08003035       4.86076992       7.31592211
H        8.10356403       4.95371399       8.82678371
O        9.86592970       1.64010390       5.95275260
H        9.51360654       1.49889014       5.07402687
H        9.33240369       2.34779142       6.31436043
O        1.12366030      10.13288483      12.06352743
H        0.90672138       9.29121412      12.46447601
H        1.98770268       9.99775006      11.67442436
O        0.18331199      14.72604438       0.28419082
H       -0.14647157      15.52700634      -0.12315988
H       -0.18689849      14.73571484       1.16684734
O        7.45525224       1.68275185      12.81890874
H        8.17289644       2.31078668      12.90131566
H        7.71499003       0.94736691      13.37386561
O       15.44905964       7.43260320      13.23211058
H       16.31287362       7.17345878      12.91132808
H       15.48230453       7.26419513      14.17379277
O        5.26884746       8.01131648       2.78907424
H        4.93516341       7.92254755       3.68182666
H        4.93536190       7.24016674       2.33043790
O        3.32302479      10.84326018      13.79995688
H        2.46838944      10.58374448      13.45574495
H        3.52209077      11.66588270      13.35285872
O        5.40464399       6.27662999      14.90507763
H        5.80092563       5.48369362      15.26624880
H        4.80392680       5.95903988      14.23090613
O        3.39395206       2.03819523       6.41668200
H        4.05697525       2.54593952       6.88447238
H        2.84848566       1.66175401       7.10732680
O        1.88142736      12.18037077       6.52514688
H        2.47449587      12.92438907       6.62973349
H        1.87369924      11.75710207       7.38364308
O        3.84133769      14.72732402       6.96581977
H        3.64974716      15.65206640       6.80969019
H        4.79518117      14.68834590       7.03578513
O        2.13667374      12.21518510       0.04510965
H        2.64515287      12.80671683      -0.50966149
H        2.74185136      11.95952767       0.74126421
O        5.76161687      14.21422074      12.61031639
H        6.44070771      13.54183280      12.66473993
H        5.64521224      14.36233622      11.67183697
O        2.20473331       6.03623263      15.20815156
H        2.50420096       5.82592040      14.32366316
H        2.96092293       6.44843258      15.62588389
O        4.72092862      14.46588663       1.05373022
H        5.14419422      13.92589847       0.38627920
H        4.57512021      13.86939636       1.78801294
O       11.13021366       0.62372964      14.99723166
H       10.28689815       0.50898200      14.55918627
H       11.49889243       1.41501934      14.60458880
O       14.21243914      11.26399145       0.74947529
H       14.51804006      11.49429960      -0.12790608
H       14.89045491      10.68338327       1.09504816
O        2.69725233       0.17775771      15.48414203
H        1.92043384      -0.32359555      15.73199238
H        3.38127439      -0.12989562      16.07886473
O        7.10066627       2.17673049       5.88453242
H        6.70681503       2.07251571       6.75070349
H        6.54062946       1.66271548       5.30282873
O       12.27662613       2.84959493       5.60050735
H       12.36512781       2.93942672       4.65165038
H       11.43356382       2.41306226       5.72264253
O       10.87886317       0.35048752       1.90990837
H       11.75987311       0.31812937       2.28274381
H       11.01955398       0.37450869       0.96340907
O       13.41031648       3.89674407      12.44083896
H       12.85788343       3.84457304      11.66088528
H       13.21765385       4.75676815      12.81429783
O        6.98841723      11.82298781      13.02907772
H        7.55728364      11.08600832      13.25152790
H        6.47025538      11.97337287      13.81972586
O        1.97678519       8.82664760       9.47112243
H        2.67010851       9.15195491      10.04532603
H        2.31004528       7.99207815       9.14148115
O        5.28122541       9.08199583      14.47950266
H        5.74977844       8.63284857      13.77597112
H        4.73915348       9.73085426      14.03075707
O        1.71695321       3.43789769      10.84953630
H        0.87395762       3.05410113      10.60810209
H        1.64447344       3.60442625      11.78934839
O        0.83067043      13.67081172      13.64411349
H        1.77534926      13.51747846      13.66151067
H        0.61975595      13.96987780      14.52859436
O        1.98055985       2.86724901      13.49601591
H        2.83660514       2.64479093      13.86198134
H        1.35577553       2.38165273      14.03459984
O        6.36084383       4.13267233      12.37326591
H        5.46027421       4.39137171      12.56892078
H        6.37712148       3.18752353      12.52380038
O        3.44401800       8.96880713       0.72094391
H        4.09994792       8.89224991       0.02803210
H        3.85754159       8.57224351       1.48773422
O       15.64683393       9.30976908       7.82636686
H       15.68366478       8.40830373       8.14610980
H       15.84438817       9.24135085       6.89227741
O        4.64153274       3.88836518       8.05183537
H        4.18166998       4.71967903       8.16877707
H        4.27659678       3.31531040       8.72612152
O        0.41204534       9.59550601       1.60930201
H        1.32955434       9.42002227       1.40046111
H        0.20825045       8.99036840       2.32239945
O        5.05726820      12.40791766       9.94716319
H        5.34053297      12.07411990      10.79838112
H        5.21267330      13.35118177       9.99547386
O        4.67046727       9.98733000       5.02645336
H        4.29880680       9.10640697       5.07200498
H        4.34813793      10.34122537       4.19754220
O       14.64803563      14.97631886       2.91694979
H       13.95911500      14.97284875       2.25241374
H       14.22769829      14.62135397       3.70024302
O       15.77523663       2.39798724       4.55866210
H       15.51413993       2.96099466       3.82990768
H       16.43580541       1.81400185       4.18604730
O       11.81356520      11.99327396      11.19373488
H       11.10672457      12.48055560      10.77045629
H       12.24916610      12.63800154      11.75123829
O        0.19474722       9.76658848       5.16535922
H       -0.57429884      10.21919666       4.81902725
H        0.74529916      10.46517017       5.51906536
O        8.22772897       3.17352353       9.44964929
H        7.46254577       2.67804378       9.15771380
H        8.97434936       2.70105893       9.08145500
O        1.78172186       6.23127195       6.52547474
H        1.06074844       6.50613895       7.09193508
H        1.86299618       5.29013997       6.68006103
O        0.35502664       1.54197222      15.25765647
H        0.22880129       2.38244456      15.69800322
H       -0.31193350       1.52813487      14.57121307
O        4.34714111       3.12820504       2.75993677
H        5.18488089       2.74549996       2.49924397
H        3.74372055       2.88608917       2.05744451
O       13.31151061       2.77203642       2.09838762
H       13.87333798       2.61016444       1.34050945
H       12.64614926       2.08527769       2.05493016
O       10.40660421      14.98532472       4.37681296
H        9.53011582      15.36939809       4.39889470
H       10.80651494      15.25226549       5.20448793
O       13.67206621       5.05739180       6.36046305
H       13.20524792       4.28221750       6.04834555
H       14.57889511       4.76757238       6.45995124
O        2.91212060      15.07875929      11.32103229
H        3.11636097      15.26914564      12.23660356
H        3.75687879      15.12105179      10.87289526
O       13.89028503      13.82490597       6.19830607
H       14.76903447      13.95946303       5.84344602
H       13.49875187      13.16513601       5.62591002
O        7.06169043       7.33012324      13.02285845
H        6.41890328       6.83834664      13.53394778
H        7.90001674       6.91754641      13.23075557
O       14.33164793       9.42743521      11.53824545
H       13.55057545       9.73385915      11.99896444
H       14.66998335       8.71826302      12.08490421
O        3.49557623       5.17545369      12.71165725
H        3.05337851       4.41430356      13.08761401
H        3.05982553       5.31514033      11.87091900
O        6.11908197      12.93687294       5.20288823
H        6.58338104      13.66346643       5.61848432
H        5.19748168      13.09072540       5.41076844
O        8.83082839       1.22688490       3.47068501
H        8.07138453       0.69039257       3.24341240
H        9.53407012       0.89636870       2.91171993
O        9.31664042      12.86295660       3.07070449
H        8.36325598      12.88737928       3.15251819
H        9.62225962      13.59553347       3.60564362
O       13.52851220       5.96045506       3.51981021
H       12.58591407       6.01937835       3.36402622
H       13.60360841       5.61582085       4.40965271
O       13.43128444       9.55266696      14.18507148
H       13.69556430       8.69557840      13.85072557
H       14.21538254      10.09522349      14.10108092
O       11.83371938       5.95211466       0.00905010
H       11.38271940       6.60523012      -0.52599294
H       12.73685278       6.26524654       0.05935237
O       14.12638289       1.34706362      13.43604722
H       13.92522540       2.15013321      12.95558210
H       14.53943735       0.77663928      12.78779270
O        0.27795239       4.11508230       0.35417733
H       -0.19668676       4.58275791       1.04136656
H        0.92377031       4.74613295       0.03648858
O        2.05277174       1.25519131       8.64972903
H        1.31415819       1.70591083       9.05903793
H        1.71760963       0.38229962       8.44489179
O        8.75716316       5.35169506       4.68259608
H        9.43022936       5.89411068       4.27150116
H        8.26251245       5.95899456       5.23281407
O        3.51360333      13.77883111      14.07839853
H        3.38613713      14.64394104      14.46771717
H        4.18593807      13.91296841      13.41041274
O        3.64367282       7.28448182       4.84550793
H        3.11787937       6.90717662       5.55078367
H        3.00186133       7.65304393       4.23848913
O       11.60863830       5.15976939       8.15898522
H       12.20234137       5.39823057       7.44702681
H       11.01378477       5.90578099       8.23545625
O       15.02428024      14.93657531      11.83478204
H       15.42032354      14.71697507      12.67808346
H       15.45044608      14.35029611      11.20956912
O        5.33938864      15.12328349      10.08173400
H        4.94581546      15.65505885       9.38996311
H        6.25320080      15.40662190      10.11170951
O       11.46861077      13.60192610      14.91779071
H       11.30635430      14.54077597      15.00979938
H       12.19700293      13.54372631      14.29949508
O       13.27518738      15.22053695       0.58155998
H       12.70069764      15.69577664      -0.01872380
H       13.23641556      14.31217857       0.28220458
O        3.71928255       9.79571731      11.32126519
H        3.83088602       9.96843006      12.25611641
H        4.24822023       9.01511111      11.15661183
O        5.05378509       7.11250616      10.89926618
H        5.39709502       7.14796810      11.79207779
H        4.33081420       6.48683103      10.94482448
O       10.09468184       4.26496995       2.02137623
H        9.66972078       4.69737998       2.76209312
H       10.49004139       4.97897542       1.52125739
O        4.59443402       1.94826389      14.66902893
H        5.19552931       1.92876021      15.41370060
H        3.86291467       1.39185189      14.93645551
O       12.99617503      14.33807638       9.46103745
H       12.63930560      13.63966176      10.00975692
H       12.91205783      15.12870624       9.99401077
O        6.18566177       1.67824786       8.41894901
H        5.43675295       1.75263064       9.01041721
H        6.25444454       0.74131543       8.23548675
O        8.52049169       5.15246243      13.74965877
H        8.37892150       4.91257900      14.66543476
H        7.78285746       4.76060392      13.28213926
O        4.10822449       2.22995846      10.14080579
H        4.43255020       1.84895302      10.95682021
H        3.26757163       2.62230243      10.37660403
O       12.13948981       9.34426950       8.83078667
H       11.21681317       9.25980050       8.59044389
H       12.61715490       9.11155531       8.03460075
O       15.55208457       7.08797460       0.14635632
H       16.41593330       6.67883410       0.09535368
H       15.70135311       7.90535493       0.62158272
O        1.78967696      11.87074284       2.72079682
H        1.36457167      12.22347463       3.50252415
H        1.21835324      11.15649483       2.43853661
O        3.14321985       6.40508931       9.03328207
H        3.02501028       5.59053390       9.52191058
H        2.84622925       6.19858516       8.14706287
O        9.86663031       9.24744589      14.66148986
H        9.02838017       9.63691009      14.91025917
H       10.49770198       9.96223650      14.74548257
O       11.79704646      12.55194582       1.99864180
H       10.95247832      12.72331453       2.41525826
H       11.65386731      12.75377942       1.07398253
O       12.80851178       1.26073530      11.03875926
H       12.20031088       1.91713963      11.37854871
H       12.87833703       1.45888664      10.10490043
O        8.48644246      11.44354769      10.69665472
H        9.32737925      11.29389381      11.12869738
H        7.88718834      11.66710886      11.40879709
O        1.13520344       5.95025292       3.79049524
H        1.42651065       6.04966767       4.69685535
H        0.17955135       5.96656396       3.84240730
O       11.50793434       3.54821041      10.35002422
H       11.51933740       4.21276086       9.66120311
H       11.00466561       2.82448666       9.97696075
O        7.90272030       0.24713410       9.98785241
H        8.58313487       0.66776808       9.46217674
H        7.74545651       0.85661800      10.70898300
O        8.70263254       9.83554875       1.89019267
H        8.07223091       9.29331743       1.41605046
H        9.49224110       9.81393759       1.34956052
O        7.72486150      15.38489441       6.50488417
H        8.41950120      16.02701245       6.35862436
H        8.16898708      14.63822171       6.90671023
O        0.58997573      13.56543984       4.47781750
H        0.95770349      13.15881067       5.26245809
H       -0.21100280      13.07095600       4.30417715
O       15.45868062       2.40874899       9.29975185
H       14.63069320       2.14903260       8.89575177
H       15.68691650       3.23330684       8.87051464
O       12.28831464      10.17059205       3.21774514
H       11.47554844       9.97324764       3.68325359
H       12.11125413      10.99493134       2.76459377
O        7.49873654      10.42353141      15.30492866
H        6.96904661      11.19264709      15.51497982
H        6.87243578       9.70006363      15.28097949
O        6.94317064       5.86884071       2.71945573
H        7.66950520       5.57157190       3.26745318
H        6.62083255       6.65767924       3.15541877
O        9.48370796      13.70688314       9.48799395
H        8.74048136      14.01156071       8.96740040
H        9.16370838      12.91702589       9.92383523
O        5.71952754       4.50636749       5.63224856
H        6.20381911       3.68221549       5.58257974
H        5.18770113       4.42487171       6.42392460
O        1.18964181      14.48681681       9.03659344
H        1.75844187      14.73007442       9.76702076
H        0.66366160      13.76140636       9.37327777
O        0.29914613      12.60953853      10.79193432
H        0.53045640      11.79324618      11.23509818
H       -0.49990727      12.40161878      10.30766695
O        6.93625030       8.00809243       0.64006945
H        6.41210855       7.44779117       0.06773235
H        6.46395176       8.00944784       1.47263422
O        9.32418991      14.79797859      11.97445020
H       10.21980817      14.86503406      12.30551413
H        9.42114121      14.44609490      11.08957159
O       11.80815044      15.51670721       6.64654939
H       12.50165177      14.92046108       6.36409885
H       11.44105781      15.10454115       7.42859413
O        3.02528399       3.59172368       0.38400297
H        2.85384363       4.50310786       0.14689765
H        3.84637311       3.37874822      -0.05948992
O       10.04715374       1.23325015       8.63604308
H        9.76472481       1.08848231       7.73298826
H       10.96799731       1.48391439       8.56224331
O       10.84879820      11.89562413       5.83133264
H       10.37514045      12.15232041       5.04013911
H       10.30783558      12.22070198       6.55099622
O        4.48506921       5.57787076       1.58583556
H        5.41693408       5.55531092       1.36823326
H        4.32732607       4.75638817       2.05114760
O       10.92892257       2.88291936      13.49591759
H       11.69769761       3.33470179      13.14790982
H       10.24172318       3.54920760      13.50290407
O       10.08426538       7.40286313       3.30364378
H        9.67945431       8.16290467       2.88567646
H       10.87268142       7.75001574       3.72091712
O        4.52495522      11.42993676       1.80142473
H        4.27599712      10.58387231       1.42936740
H        3.84804520      11.61427120       2.45261247
O       15.58808811      11.20995330      14.18547908
H       15.83434953      10.97834690      13.28996491
H       16.38715438      11.57247129      14.56797829
O        2.30499654       0.35041977       3.16919010
H        1.84386811      -0.39906255       3.54584466
H        1.86786710       0.50502842       2.33178587
O        8.61546256       2.23345259       0.00730036
H        9.37676538       1.65758271       0.07817874
H        8.27398897       2.07265801      -0.87234316
O        5.54483558      12.40809467      15.25917499
H        4.80302778      12.60866536      14.68845227
H        5.17896233      11.84090246      15.93789556
O       12.91683364       8.49091607       6.02915390
H       12.67519972       9.07607386       5.31121572
H       13.75187923       8.83379297       6.34753439
O        6.79470336      15.50590351       2.47366740
H        7.04790199      14.77708315       3.04018587
H        6.09430611      15.15181008       1.92567709
O       14.03803813       6.57209076      11.07179998
H       13.24697940       7.11003056      11.03895632
H       14.29676615       6.58179326      11.99331911
O       11.54203208       7.63156521      10.85762884
H       11.47718662       8.13393399      11.66981879
H       11.88931303       8.25324670      10.21798839
O        8.95874315      12.71853145      15.48221824
H        8.85722777      11.81107692      15.19507238
H        9.80086160      12.99244914      15.11884865
O        8.23499699      15.12663236      14.44508686
H        8.24690216      14.21365085      14.73241049
H        8.90255480      15.17151939      13.76055522
O        3.19210773       7.83997174      13.16636885
H        2.46361514       8.09775257      12.60149769
H        3.40953532       6.95070068      12.88680836
O        0.20065270       6.79919820       9.10624165
H        1.07613774       6.43615519       9.24024746
H       -0.26905138       6.59801465       9.91564581
O       12.83768782       1.67959430       8.24541595
H       12.66281979       2.28141275       7.52190537
H       12.78142846       0.80873578       7.85213213
O       11.94815207      15.02915749      12.65252015
H       12.38810056      15.51907460      11.95778395
H       11.78538735      15.67770649      13.33744619
391
Properties=species:S:1:pos:R:3 charge=0 spin=8 spin_multiplicity=8 metal=Gd geometry=box boundary=non-pbc pbc="F F F"
Gd       7.89093312       7.89093312       7.89093312
O        6.98436834       6.87321839       6.07563782
H        6.48367724       6.05196430       6.01124721
O        6.77130274       9.57203385       8.92690037
H        7.09812440      10.26831578       9.50799854
O        9.91712827       7.22754712       8.67026116
H       10.31207812       7.33835692       9.54263253
O        7.01409127       9.48817205       6.31356944
H        7.46901930      10.23213685       5.91886866
H        6.13283454       9.52079977       5.94134124
O        5.57053000       7.34048750       8.23855213
H        4.89341723       7.21040537       7.57460275
H        5.11944105       7.20293782       9.07151713
O        9.32797301       9.76772947       8.36066900
H        9.81389648      10.30466338       7.73471996
H        9.54075179      10.14331151       9.21500802
O        7.88441174       7.62004491      10.28565169
H        8.63263540       7.65701696      10.88149249
H        7.13301732       7.45136449      10.85414547
O        9.49607698       7.63842466       6.11108687
H        9.32809204       7.61974042       5.16892776
H       10.44449790       7.53433693       6.18786809
O        8.05251571       5.49074011       8.03606956
H        8.08003035       4.86076992       7.31592211
H        8.10356403       4.95371399       8.82678371
O        9.86592970       1.64010390       5.95275260
H        9.51360654       1.49889014       5.07402687
H        9.33240369       2.34779142       6.31436043
O        1.12366030      10.13288483      12.06352743
H        0.90672138       9.29121412      12.46447601
H        1.98770268       9.99775006      11.67442436
O        0.18331199      14.72604438       0.28419082
H       -0.14647157      15.52700634      -0.12315988
H       -0.18689849      14.73571484       1.16684734
O        7.45525224       1.68275185      12.81890874
H        8.17289644       2.31078668      12.90131566
H        7.71499003       0.94736691      13.37386561
O       15.44905964       7.43260320      13.23211058
H       16.31287362       7.17345878      12.91132808
H       15.48230453       7.26419513      14.17379277
O        5.26884746       8.01131648       2.78907424
H        4.93516341       7.92254755       3.68182666
H        4.93536190       7.24016674       2.33043790
O        3.32302479      10.84326018      13.79995688
H        2.46838944      10.58374448      13.45574495
H        3.52209077      11.66588270      13.35285872
O        5.40464399       6.27662999      14.90507763
H        5.80092563       5.48369362      15.26624880
H        4.80392680       5.95903988      14.23090613
O        3.39395206       2.03819523       6.41668200
H        4.05697525       2.54593952       6.88447238
H        2.84848566       1.66175401       7.10732680
O        1.88142736      12.18037077       6.52514688
H        2.47449587      12.92438907       6.62973349
H        1.87369924      11.75710207       7.38364308
O        3.84133769      14.72732402       6.96581977
H        3.64974716      15.65206640       6.80969019
H        4.79518117      14.68834590       7.03578513
O        2.13667374      12.21518510       0.04510965
H        2.64515287      12.80671683      -0.50966149
H        2.74185136      11.95952767       0.74126421
O        5.76161687      14.21422074      12.61031639
H        6.44070771      13.54183280      12.66473993
H        5.64521224      14.36233622      11.67183697
O        2.20473331       6.03623263      15.20815156
H        2.50420096       5.82592040      14.32366316
H        2.96092293       6.44843258      15.62588389
O        4.72092862      14.46588663       1.05373022
H        5.14419422      13.92589847       0.38627920
H        4.57512021      13.86939636       1.78801294
O       11.13021366       0.62372964      14.99723166
H       10.28689815       0.50898200      14.55918627
H       11.49889243       1.41501934      14.60458880
O       14.21243914      11.26399145       0.74947529
H       14.51804006      11.49429960      -0.12790608
H       14.89045491      10.68338327       1.09504816
O        2.69725233       0.17775771      15.48414203
H        1.92043384      -0.32359555      15.73199238
H        3.38127439      -0.12989562      16.07886473
O        7.10066627       2.17673049       5.88453242
H        6.70681503       2.07251571       6.75070349
H        6.54062946       1.66271548       5.30282873
O       12.27662613       2.84959493       5.60050735
H       12.36512781       2.93942672       4.65165038
H       11.43356382       2.41306226       5.72264253
O       10.87886317       0.35048752       1.90990837
H       11.75987311       0.31812937       2.28274381
H       11.01955398       0.37450869       0.96340907
O       13.41031648       3.89674407      12.44083896
H       12.85788343       3.84457304      11.66088528
H       13.21765385       4.75676815      12.81429783
O        6.98841723      11.82298781      13.02907772
H        7.55728364      11.08600832      13.25152790
H        6.47025538      11.97337287      13.81972586
O        1.97678519       8.82664760       9.47112243
H        2.67010851       9.15195491      10.04532603
H        2.31004528       7.99207815       9.14148115
O        5.28122541       9.08199583      14.47950266
H        5.74977844       8.63284857      13.77597112
H        4.73915348       9.73085426      14.03075707
O        1.71695321       3.43789769      10.84953630
H        0.87395762       3.05410113      10.60810209
H        1.64447344       3.60442625      11.78934839
O        0.83067043      13.67081172      13.64411349
H        1.77534926      13.51747846      13.66151067
H        0.61975595      13.96987780      14.52859436
O        1.98055985       2.86724901      13.49601591
H        2.83660514       2.64479093      13.86198134
H        1.35577553       2.38165273      14.03459984
O        6.36084383       4.13267233      12.37326591
H        5.46027421       4.39137171      12.56892078
H        6.37712148       3.18752353      12.52380038
O        3.44401800       8.96880713       0.72094391
H        4.09994792       8.89224991       0.02803210
H        3.85754159       8.57224351       1.48773422
O       15.64683393       9.30976908       7.82636686
H       15.68366478       8.40830373       8.14610980
H       15.84438817       9.24135085       6.89227741
O        4.64153274       3.88836518       8.05183537
H        4.18166998       4.71967903       8.16877707
H        4.27659678       3.31531040       8.72612152
O        0.41204534       9.59550601       1.60930201
H        1.32955434       9.42002227       1.40046111
H        0.20825045       8.99036840       2.32239945
O        5.05726820      12.40791766       9.94716319
H        5.34053297      12.07411990      10.79838112
H        5.21267330      13.35118177       9.99547386
O        4.67046727       9.98733000       5.02645336
H        4.29880680       9.10640697       5.07200498
H        4.34813793      10.34122537       4.19754220
O       14.64803563      14.97631886       2.91694979
H       13.95911500      14.97284875       2.25241374
H       14.22769829      14.62135397       3.70024302
O       15.77523663       2.39798724       4.55866210
H       15.51413993       2.96099466       3.82990768
H       16.43580541       1.81400185       4.18604730
O       11.81356520      11.99327396      11.19373488
H       11.10672457      12.48055560      10.77045629
H       12.24916610      12.63800154      11.75123829
O        0.19474722       9.76658848       5.16535922
H       -0.57429884      10.21919666       4.81902725
H        0.74529916      10.46517017       5.51906536
O        8.22772897       3.17352353       9.44964929
H        7.46254577       2.67804378       9.15771380
H        8.97434936       2.70105893       9.08145500
O        1.78172186       6.23127195       6.52547474
H        1.06074844       6.50613895       7.09193508
H        1.86299618       5.29013997       6.68006103
O        0.35502664       1.54197222      15.25765647
H        0.22880129       2.38244456      15.69800322
H       -0.31193350       1.52813487      14.57121307
O        4.34714111       3.12820504       2.75993677
H        5.18488089       2.74549996       2.49924397
H        3.74372055       2.88608917       2.05744451
O       13.31151061       2.77203642       2.09838762
H       13.87333798       2.61016444       1.34050945
H       12.64614926       2.08527769       2.05493016
O       10.40660421      14.98532472       4.37681296
H        9.53011582      15.36939809       4.39889470
H       10.80651494      15.25226549       5.20448793
O       13.67206621       5.05739180       6.36046305
H       13.20524792       4.28221750       6.04834555
H       14.57889511       4.76757238       6.45995124
O        2.91212060      15.07875929      11.32103229
H        3.11636097      15.26914564      12.23660356
H        3.75687879      15.12105179      10.87289526
O       13.89028503      13.82490597       6.19830607
H       14.76903447      13.95946303       5.84344602
H       13.49875187      13.16513601       5.62591002
O        7.06169043       7.33012324      13.02285845
H        6.41890328       6.83834664      13.53394778
H        7.90001674       6.91754641      13.23075557
O       14.33164793       9.42743521      11.53824545
H       13.55057545       9.73385915      11.99896444
H       14.66998335       8.71826302      12.08490421
O        3.49557623       5.17545369      12.71165725
H        3.05337851       4.41430356      13.08761401
H        3.05982553       5.31514033      11.87091900
O        6.11908197      12.93687294       5.20288823
H        6.58338104      13.66346643       5.61848432
H        5.19748168      13.09072540       5.41076844
O        8.83082839       1.22688490       3.47068501
H        8.07138453       0.69039257       3.24341240
H        9.53407012       0.89636870       2.91171993
O        9.31664042      12.86295660       3.07070449
H        8.36325598      12.88737928       3.15251819
H        9.62225962      13.59553347       3.60564362
O       13.52851220       5.96045506       3.51981021
H       12.58591407       6.01937835       3.36402622
H       13.60360841       5.61582085       4.40965271
O       13.43128444       9.55266696      14.18507148
H       13.69556430       8.69557840      13.85072557
H       14.21538254      10.09522349      14.10108092
O       11.83371938       5.95211466       0.00905010
H       11.38271940       6.60523012      -0.52599294
H       12.73685278       6.26524654       0.05935237
O       14.12638289       1.34706362      13.43604722
H       13.92522540       2.15013321      12.95558210
H       14.53943735       0.77663928      12.78779270
O        0.27795239       4.11508230       0.35417733
H       -0.19668676       4.58275791       1.04136656
H        0.92377031       4.74613295       0.03648858
O        2.05277174       1.25519131       8.64972903
H        1.31415819       1.70591083       9.05903793
H        1.71760963       0.38229962       8.44489179
O        8.75716316       5.35169506       4.68259608
H        9.43022936       5.89411068       4.27150116
H        8.26251245       5.95899456       5.23281407
O        3.51360333      13.77883111      14.07839853
H        3.38613713      14.64394104      14.46771717
H        4.18593807      13.91296841      13.41041274
O        3.64367282       7.28448182       4.84550793
H        3.11787937       6.90717662       5.55078367
H        3.00186133       7.65304393       4.23848913
O       11.60863830       5.15976939       8.15898522
H       12.20234137       5.39823057       7.44702681
H       11.01378477       5.90578099       8.23545625
O       15.02428024      14.93657531      11.83478204
H       15.42032354      14.71697507      12.67808346
H       15.45044608      14.35029611      11.20956912
O        5.33938864      15.12328349      10.08173400
H        4.94581546      15.65505885       9.38996311
H        6.25320080      15.40662190      10.11170951
O       11.46861077      13.60192610      14.91779071
H       11.30635430      14.54077597      15.00979938
H       12.19700293      13.54372631      14.29949508
O       13.27518738      15.22053695       0.58155998
H       12.70069764      15.69577664      -0.01872380
H       13.23641556      14.31217857       0.28220458
O        3.71928255       9.79571731      11.32126519
H        3.83088602       9.96843006      12.25611641
H        4.24822023       9.01511111      11.15661183
O        5.05378509       7.11250616      10.89926618
H        5.39709502       7.14796810      11.79207779
H        4.33081420       6.48683103      10.94482448
O       10.09468184       4.26496995       2.02137623
H        9.66972078       4.69737998       2.76209312
H       10.49004139       4.97897542       1.52125739
O        4.59443402       1.94826389      14.66902893
H        5.19552931       1.92876021      15.41370060
H        3.86291467       1.39185189      14.93645551
O       12.99617503      14.33807638       9.46103745
H       12.63930560      13.63966176      10.00975692
H       12.91205783      15.12870624       9.99401077
O        6.18566177       1.67824786       8.41894901
H        5.43675295       1.75263064       9.01041721
H        6.25444454       0.74131543       8.23548675
O        8.52049169       5.15246243      13.74965877
H        8.37892150       4.91257900      14.66543476
H        7.78285746       4.76060392      13.28213926
O        4.10822449       2.22995846      10.14080579
H        4.43255020       1.84895302      10.95682021
H        3.26757163       2.62230243      10.37660403
O       12.13948981       9.34426950       8.83078667
H       11.21681317       9.25980050       8.59044389
H       12.61715490       9.11155531       8.03460075
O       15.55208457       7.08797460       0.14635632
H       16.41593330       6.67883410       0.09535368
H       15.70135311       7.90535493       0.62158272
O        1.78967696      11.87074284       2.72079682
H        1.36457167      12.22347463       3.50252415
H        1.21835324      11.15649483       2.43853661
O        3.14321985       6.40508931       9.03328207
H        3.02501028       5.59053390       9.52191058
H        2.84622925       6.19858516       8.14706287
O        9.86663031       9.24744589      14.66148986
H        9.02838017       9.63691009      14.91025917
H       10.49770198       9.96223650      14.74548257
O       11.79704646      12.55194582       1.99864180
H       10.95247832      12.72331453       2.41525826
H       11.65386731      12.75377942       1.07398253
O       12.80851178       1.26073530      11.03875926
H       12.20031088       1.91713963      11.37854871
H       12.87833703       1.45888664      10.10490043
O        8.48644246      11.44354769      10.69665472
H        9.32737925      11.29389381      11.12869738
H        7.88718834      11.66710886      11.40879709
O        1.13520344       5.95025292       3.79049524
H        1.42651065       6.04966767       4.69685535
H        0.17955135       5.96656396       3.84240730
O       11.50793434       3.54821041      10.35002422
H       11.51933740       4.21276086       9.66120311
H       11.00466561       2.82448666       9.97696075
O        7.90272030       0.24713410       9.98785241
H        8.58313487       0.66776808       9.46217674
H        7.74545651       0.85661800      10.70898300
O        8.70263254       9.83554875       1.89019267
H        8.07223091       9.29331743       1.41605046
H        9.49224110       9.81393759       1.34956052
O        7.72486150      15.38489441       6.50488417
H        8.41950120      16.02701245       6.35862436
H        8.16898708      14.63822171       6.90671023
O        0.58997573      13.56543984       4.47781750
H        0.95770349      13.15881067       5.26245809
H       -0.21100280      13.07095600       4.30417715
O       15.45868062       2.40874899       9.29975185
H       14.63069320       2.14903260       8.89575177
H       15.68691650       3.23330684       8.87051464
O       12.28831464      10.17059205       3.21774514
H       11.47554844       9.97324764       3.68325359
H       12.11125413      10.99493134       2.76459377
O        7.49873654      10.42353141      15.30492866
H        6.96904661      11.19264709      15.51497982
H        6.87243578       9.70006363      15.28097949
O        6.94317064       5.86884071       2.71945573
H        7.66950520       5.57157190       3.26745318
H        6.62083255       6.65767924       3.15541877
O        9.48370796      13.70688314       9.48799395
H        8.74048136      14.01156071       8.96740040
H        9.16370838      12.91702589       9.92383523
O        5.71952754       4.50636749       5.63224856
H        6.20381911       3.68221549       5.58257974
H        5.18770113       4.42487171       6.42392460
O        1.18964181      14.48681681       9.03659344
H        1.75844187      14.73007442       9.76702076
H        0.66366160      13.76140636       9.37327777
O        0.29914613      12.60953853      10.79193432
H        0.53045640      11.79324618      11.23509818
H       -0.49990727      12.40161878      10.30766695
O        6.93625030       8.00809243       0.64006945
H        6.41210855       7.44779117       0.06773235
H        6.46395176       8.00944784       1.47263422
O        9.32418991      14.79797859      11.97445020
H       10.21980817      14.86503406      12.30551413
H        9.42114121      14.44609490      11.08957159
O       11.80815044      15.51670721       6.64654939
H       12.50165177      14.92046108       6.36409885
H       11.44105781      15.10454115       7.42859413
O        3.02528399       3.59172368       0.38400297
H        2.85384363       4.50310786       0.14689765
H        3.84637311       3.37874822      -0.05948992
O       10.04715374       1.23325015       8.63604308
H        9.76472481       1.08848231       7.73298826
H       10.96799731       1.48391439       8.56224331
O       10.84879820      11.89562413       5.83133264
H       10.37514045      12.15232041       5.04013911
H       10.30783558      12.22070198       6.55099622
O        4.48506921       5.57787076       1.58583556
H        5.41693408       5.55531092       1.36823326
H        4.32732607       4.75638817       2.05114760
O       10.92892257       2.88291936      13.49591759
H       11.69769761       3.33470179      13.14790982
H       10.24172318       3.54920760      13.50290407
O       10.08426538       7.40286313       3.30364378
H        9.67945431       8.16290467       2.88567646
H       10.87268142       7.75001574       3.72091712
O        4.52495522      11.42993676       1.80142473
H        4.27599712      10.58387231       1.42936740
H        3.84804520      11.61427120       2.45261247
O       15.58808811      11.20995330      14.18547908
H       15.83434953      10.97834690      13.28996491
H       16.38715438      11.57247129      14.56797829
O        2.30499654       0.35041977       3.16919010
H        1.84386811      -0.39906255       3.54584466
H        1.86786710       0.50502842       2.33178587
O        8.61546256       2.23345259       0.00730036
H        9.37676538       1.65758271       0.07817874
H        8.27398897       2.07265801      -0.87234316
O        5.54483558      12.40809467      15.25917499
H        4.80302778      12.60866536      14.68845227
H        5.17896233      11.84090246      15.93789556
O       12.91683364       8.49091607       6.02915390
H       12.67519972       9.07607386       5.31121572
H       13.75187923       8.83379297       6.34753439
O        6.79470336      15.50590351       2.47366740
H        7.04790199      14.77708315       3.04018587
H        6.09430611      15.15181008       1.92567709
O       14.03803813       6.57209076      11.07179998
H       13.24697940       7.11003056      11.03895632
H       14.29676615       6.58179326      11.99331911
O       11.54203208       7.63156521      10.85762884
H       11.47718662       8.13393399      11.66981879
H       11.88931303       8.25324670      10.21798839
O        8.95874315      12.71853145      15.48221824
H        8.85722777      11.81107692      15.19507238
H        9.80086160      12.99244914      15.11884865
O        8.23499699      15.12663236      14.44508686
H        8.24690216      14.21365085      14.73241049
H        8.90255480      15.17151939      13.76055522
O        3.19210773       7.83997174      13.16636885
H        2.46361514       8.09775257      12.60149769
H        3.40953532       6.95070068      12.88680836
O        0.20065270       6.79919820       9.10624165
H        1.07613774       6.43615519       9.24024746
H       -0.26905138       6.59801465       9.91564581
O       12.83768782       1.67959430       8.24541595
H       12.66281979       2.28141275       7.52190537
H       12.78142846       0.80873578       7.85213213
O       11.94815207      15.02915749      12.65252015
H       12.38810056      15.51907460      11.95778395
H       11.78538735      15.67770649      13.33744619
391
Properties=species:S:1:pos:R:3 charge=0 spin=8 spin_multiplicity=8 metal=Gd geometry=droplet boundary=non-pbc droplet_radius=9.729 pbc="F F F"
Gd       0.00000000       0.00000000       0.00000000
O        2.05689526       0.65630097       0.70096429
H        2.31585161       1.14394019       1.49118299
O       -0.99628169      -1.80922001       0.94183105
H       -1.17165360      -2.00757613       1.86875907
O       -1.06061357       1.15291905      -1.64279534
H       -1.97881944       1.11367936      -1.93374933
O        1.51845071      -1.86204181       0.18763719
H        1.52576782      -2.66661790      -0.33085643
H        2.24941855      -1.96280789       0.79736176
O        0.15514986       0.04278733       2.40462009
H        0.73738600       0.57711385       2.94473868
H       -0.35165095      -0.47073558       3.03365028
O       -0.94119375      -1.47022130      -1.66153653
H       -1.46383281      -2.25906129      -1.51727387
H       -0.87617189      -1.39621666      -2.61365381
O       -2.30449460       0.43460785       0.55544636
H       -2.82182547       1.21151051       0.34326044
H       -2.90763057      -0.13098441       1.03769551
O        1.46769431       0.47501939      -1.85157500
H        2.00222587      -0.14375658      -2.34919348
H        1.64676946       1.32475423      -2.25420962
O        0.10439346       2.37984854       0.36540790
H        0.60562692       2.84872350       1.03260587
H       -0.34608292       3.06807821      -0.12412534
O       -3.34046077      -2.06156292      -0.41446814
H       -2.55300138      -2.05337984       0.12965738
H       -4.01289059      -2.45394980       0.14240035
O       -1.45566123       4.41593810      -0.53889398
H       -2.39693765       4.38850773      -0.36720207
H       -1.09035480       4.89810529       0.20292665
O        1.28736827       3.22044975       2.66593293
H        0.68894753       2.65282348       3.15165392
H        1.89439353       3.55157666       3.32782956
O       -0.52999455      -0.91083484      -4.29144185
H       -0.39549783      -0.05910008      -4.70700215
H        0.04028742      -1.50725576      -4.77651134
O       -4.13666596       0.19676686      -1.70458592
H       -3.87119393      -0.58952327      -1.22761185
H       -4.54846707       0.75168062      -1.04222469
O       -1.04925038      -1.37224878       4.39095095
H       -0.22694834      -1.18414355       4.84335301
H       -1.00006851      -2.30498096       4.18160993
O        4.62585897       1.37239164       0.16648756
H        4.69375579       2.19563228      -0.31714113
H        3.69971636       1.13703456       0.11082110
O       -4.40614968      -0.71824458       1.84089461
H       -4.74721130       0.17601777       1.82662394
H       -5.09312138      -1.24367055       1.43073699
O        2.30479137      -4.31514831      -0.68548062
H        2.33755819      -4.99448234      -1.35902605
H        3.18339252      -4.31122244      -0.30564322
O       -1.40652884       2.82012647      -7.24031945
H       -1.67153032       3.69580852      -7.52172129
H       -0.76726941       2.97474240      -6.54485332
O       -0.36761245      -5.22827116      -0.13024450
H        0.41143501      -4.67225609      -0.11743310
H       -0.71935256      -5.16905219       0.75801438
O        3.52858133      -1.14278053       3.71186502
H        3.51703904      -1.38885243       4.63682299
H        4.45803066      -1.08121187       3.49149018
O        3.45780636       2.94368527      -2.74213367
H        2.95678200       2.73804384      -1.95288211
H        4.35762643       3.05126941      -2.43394325
O       -3.19610876      -1.37977768      -4.01388693
H       -2.28840401      -1.07604139      -4.00694399
H       -3.62068018      -0.88325327      -3.31429101
O        4.02112588      -3.04545785       1.67407283
H        3.65352680      -2.46018158       2.33630725
H        4.66323449      -2.50883243       1.20935621
O        3.95934635       3.17365741       2.15922669
H        3.95001802       2.48956954       1.48977273
H        3.73534595       2.71827786       2.97082087
O        0.24550214      -3.52102357      -4.18401274
H       -0.59810378      -3.19885099      -3.86657659
H        0.51893647      -4.16333590      -3.52910787
O       -2.22844468       1.01501784       4.94670176
H       -1.77833558       0.18671327       4.78073433
H       -1.79488204       1.64360226       4.36952163
O        1.41118597       0.66367598      -5.36435091
H        2.32821791       0.83954948      -5.57495189
H        1.21605832      -0.16005524      -5.81114382
O        1.03346955      -4.21922629       3.60751200
H        0.20877349      -4.52999492       3.23397337
H        0.83768819      -3.33582886       3.91977868
O        1.18078172       3.41181145      -4.37107424
H        1.37624399       2.57348497      -4.78968511
H        1.92926699       3.57356459      -3.79675937
O       -4.09350604       4.06908323      -1.10417739
H       -4.75552623       4.65337564      -0.73463241
H       -4.34246041       3.19815836      -0.79475302
O        3.46846792       1.51859324       4.28700392
H        4.11765187       1.62561340       4.98222958
H        3.51054896       0.58957978       4.06029923
O       -1.68346795      -5.04455161       2.24318581
H       -2.18383848      -5.85198158       2.36116047
H       -2.21474200      -4.36919269       2.66493225
O        3.01984062      -3.24317625      -3.73740920
H        2.21375340      -2.74619161      -3.87691370
H        3.29391473      -3.50738338      -4.61565166
O        5.88993150      -1.03534646       0.10887392
H        5.39660144      -1.66386507      -0.41821397
H        5.37627343      -0.22889919       0.06381807
O       -4.12928210       1.62776069      -4.01772278
H       -4.36375324       1.06557968      -4.75610455
H       -4.12183483       1.04051269      -3.26186818
O       -3.14974658       4.63545708       2.22214131
H       -2.51382455       4.28285215       1.59964249
H       -2.73362776       4.52754638       3.07737943
O        3.88120904       4.64272166      -0.12859859
H        3.15756807       4.22261871      -0.59345243
H        3.80975781       4.31899557       0.76935908
O        4.73652673      -1.13795275      -3.59483581
H        4.12393719      -1.86176458      -3.72545868
H        4.69804614      -0.95751806      -2.65558376
O       -3.37962566      -4.82678745      -1.40842430
H       -3.27007139      -3.92728531      -1.09999989
H       -3.28140514      -5.36374013      -0.62212513
O       -0.97947447      -5.50418446      -2.76613083
H       -0.41451423      -5.27188091      -2.02918658
H       -1.86696815      -5.46564619      -2.40961768
O       -3.56022468      -2.48699953       4.93963947
H       -3.19698499      -3.36499609       4.82383440
H       -2.84006804      -1.89779900       4.71503092
O       -7.62843393       0.77457576       0.02051118
H       -6.93794523       1.37542381       0.30058049
H       -7.46184166       0.63535545      -0.91174230
O        1.78928941      -6.26060365       1.16608262
H        0.97862521      -6.67807583       0.87492567
H        1.99871487      -5.63397444       0.47347258
O        1.88037882      -5.61209766      -3.03839265
H        2.41503094      -4.86056414      -3.29447139
H        1.41199489      -5.85652121      -3.83658152
O       -5.66279907      -2.25586877      -2.83758975
H       -6.24856162      -1.93975978      -3.52547722
H       -5.31347929      -1.46049795      -2.43560368
O        4.21132225       0.92779476      -5.28458445
H        4.35729903       0.18497343      -4.69880369
H        3.88338143       1.62270504      -4.71380748
O        5.94811929       3.13223099      -1.48731713
H        5.49158363       3.84902866      -1.04685358
H        6.32976930       3.53432763      -2.26763334
O        0.94799258      -2.09216162      -6.58884113
H        0.25610707      -2.66362696      -6.92193820
H        1.61528031      -2.69220263      -6.25581003
O        7.00402551       1.05478664      -3.55446229
H        6.72827986       1.65473282      -2.86145381
H        6.25792216       0.46721712      -3.67414397
O       -2.20195556      -4.19051206      -5.16391122
H       -3.15747098      -4.24359070      -5.18403013
H       -1.95323442      -4.64516402      -4.35913720
O       -2.08603831       6.63805044      -1.97507101
H       -2.92848942       6.85870980      -1.57780861
H       -1.80629158       5.84425061      -1.51915935
O        1.16911251       6.90361959      -0.65661828
H        0.23712663       6.79281087      -0.84464911
H        1.56328400       7.10256481      -1.50590119
O        6.19314335      -1.02959783       3.17735429
H        6.02350496      -0.95752280       2.23806740
H        6.98949565      -0.51730803       3.31740429
O        3.29574406       4.21272916       4.61896500
H        3.08507088       3.30410422       4.83402168
H        4.20909099       4.18627978       4.33378147
O       -2.23076993      -1.11385150      -6.61520261
H       -1.81308983      -1.76054745      -7.18402554
H       -1.60140423      -0.97456269      -5.90758034
O       -5.95492081      -1.00564391       4.07773946
H       -5.29455702      -0.87298144       3.39762758
H       -6.66374396      -1.47329999       3.63603891
O        7.12856762       1.87808811       1.10398258
H        6.26953416       1.68747293       0.72720786
H        6.99557453       1.81327818       2.04968039
O        0.97330592       1.20002513       7.16045655
H        0.43938655       1.73588243       7.74698779
H        1.85412716       1.56717850       7.23518394
O       -0.79638413       5.44649263       4.87496954
H       -1.20068217       5.30186626       4.01948245
H       -1.24213375       4.83201762       5.45803006
O        2.75009080      -3.67166365       5.80863775
H        3.62057001      -3.33159816       5.60162750
H        2.37955025      -3.91509351       4.96030205
O        4.24806194      -4.72819540       3.79910470
H        3.72778766      -5.24216893       4.41666257
H        4.81914643      -4.19495524       4.35205069
O       -7.33922773      -1.98467357       1.41562522
H       -7.41054053      -1.11056973       1.03210365
H       -6.93555969      -2.51574092       0.72914767
O       -1.32027137      -0.51867093       7.36369524
H       -0.47885056      -0.06655150       7.42558939
H       -1.38316898      -0.78409607       6.44618490
O       -4.29606496       2.69455893       5.54991223
H       -3.55920925       2.10881865       5.37617727
H       -4.91464845       2.51886980       4.84088499
O       -4.76034994      -5.32298062       2.48544814
H       -5.22668953      -4.68168598       3.02163879
H       -4.85643657      -6.14834308       2.96060707
O       -4.37692313      -0.10284831       6.18477086
H       -4.13635716      -0.93380602       5.77505250
H       -5.04224184      -0.33792023       6.83155061
O       -2.93741846       7.01415337       0.92017272
H       -3.04235503       6.27409919       1.51811919
H       -2.29319176       6.71483500       0.27860253
O       -7.36544018       0.66036823      -3.08041945
H       -7.38179188       0.83821992      -4.02080939
H       -6.87641606      -0.15849779      -2.99951399
O       -3.76708909      -6.79691359       0.42648034
H       -4.00529018      -6.33726590       1.23159902
H       -2.86782759      -7.08965446       0.57434299
O       -1.97532989       3.67581468       6.57447366
H       -2.59207698       2.99912347       6.85365796
H       -1.85961739       4.22865509       7.34726726
O       -6.63041696       1.61148980       3.77324631
H       -6.48472064       0.67554099       3.91110217
H       -7.56567557       1.73518809       3.93517815
O        4.34135280       6.00536222      -2.43725155
H        4.16961822       5.57738935      -1.59845581
H        4.78877342       5.33939651      -2.95930167
O       -4.83227754      -3.49943825      -5.11675969
H       -5.67992298      -3.07411827      -5.24649773
H       -4.34176811      -2.89279207      -4.56213121
O       -4.83866493       0.01344076      -6.30441914
H       -4.90438724       0.71476731      -6.95253448
H       -3.94601130      -0.31865967      -6.39986875
O       -1.81877046       6.03389032      -4.85869704
H       -1.56587988       6.85181790      -5.28680062
H       -1.90711923       6.26440569      -3.93387868
O       -1.29280161      -7.85767121       0.03777092
H       -1.08208575      -8.19255829       0.90936790
H       -0.85395929      -7.00809432      -0.00545372
O       -6.49211910       3.95173340       2.39392271
H       -6.57434357       3.09625479       2.81538128
H       -6.96903234       3.85974217       1.56910563
O        6.53404683      -3.83483462       2.62668003
H        6.83290844      -2.93603797       2.76480377
H        5.60051414      -3.75021037       2.43280560
O        6.40360556      -3.98118175      -2.74068783
H        7.31195205      -3.86436587      -3.01906266
H        5.95264136      -3.19909125      -3.05880350
O        1.91451919      -6.77966675       3.92970702
H        1.78229474      -5.84674794       3.76115130
H        2.85606465      -6.91234430       3.81961314
O       -0.25501286      -7.65804309       2.54407153
H        0.42493036      -7.28987379       3.10830589
H       -1.07755112      -7.37438576       2.94307175
O        0.66817674       4.26040990       6.83626222
H        0.22306829       3.70447086       7.47582621
H        0.51047771       5.15318324       7.14337556
O       -1.18853716      -3.93461926       7.00760291
H       -0.79679364      -3.73152722       6.15817812
H       -0.75633868      -3.33905251       7.61976020
O       -5.68616279       5.89056420       0.13839054
H       -5.89630743       5.47039385       0.97237372
H       -4.85266070       6.33391471       0.29633495
O        0.75775897      -5.00240188      -6.40696387
H        0.58735571      -4.36214691      -5.71611790
H        0.16184990      -4.75636149      -7.11448654
O        3.42128532      -0.55735349      -7.42200729
H        3.77131290      -0.03173643      -6.70267479
H        2.80464508      -1.15752707      -7.00274802
O       -5.92156934      -3.71241728       4.34449530
H       -5.23726018      -3.08129597       4.56729276
H       -6.42534405      -3.81519119       5.15188641
O       -3.71170710      -5.40932797       4.99377752
H       -4.03828584      -6.04099305       5.63454065
H       -4.47034889      -4.86367180       4.78652449
O        3.81341625      -4.49274351      -6.01934481
H        2.87767306      -4.66671772      -6.12107727
H        3.95074840      -3.65377398      -6.45923326
O        5.68174887      -2.87779693       5.51445697
H        6.06278163      -2.45123020       6.28197682
H        5.86364528      -2.27763366       4.79130443
O       -2.91258631      -7.36160896       3.04189694
H       -3.20876320      -6.76823723       3.73212958
H       -3.71603849      -7.75862498       2.70563112
O        8.40413798      -0.86947377      -1.37283266
H        8.93723020      -0.32628526      -0.79232360
H        7.66034856      -1.13853684      -0.83374621
O       -3.01206580       1.54145501       7.90416978
H       -2.42582113       0.80679664       7.72299005
H       -3.71435412       1.45262238       7.25986262
O       -1.10050655      -3.54857406      -7.76034729
H       -1.42571328      -3.63839933      -6.86457732
H       -1.72134642      -4.04657290      -8.29212436
O       -0.31199358      -7.23620013      -4.75730113
H       -0.61343876      -6.66629792      -4.04978851
H        0.21982949      -6.66718482      -5.31373409
O        1.71379021       6.23670350      -5.81717109
H        1.53021340       5.39887282      -5.39223446
H        2.63959949       6.18729329      -6.05522077
O       -5.44918246       6.36486241      -2.59891418
H       -5.39088167       6.32438199      -1.64434926
H       -6.16007103       5.76380933      -2.82163478
O       -2.71683282      -7.56898267      -3.53075964
H       -3.53579564      -7.30149680      -3.11364688
H       -2.14248325      -7.80515499      -2.80235244
O        0.09797574       7.87287970       4.03166280
H       -0.20320507       7.07088950       4.45866828
H       -0.69826215       8.27110663       3.68002041
O        4.75496859       1.57509036       7.33198324
H        4.19099763       0.93824486       6.89312516
H        4.23380013       2.37745134       7.36083006
O       -5.11747749      -6.83063935      -2.48665510
H       -4.64422628      -6.21010702      -1.93239456
H       -5.21947346      -7.61043269      -1.94098944
O        2.58524031       7.67179594      -3.67719809
H        2.17474595       7.23505928      -4.42351392
H        3.11936546       6.99242419      -3.26562040
O       -6.61013254      -4.80986654      -3.52918000
H       -6.13748491      -3.97929107      -3.47458654
H       -5.96937380      -5.46866477      -3.26151422
O       -7.89995420      -3.96327673      -1.28908050
H       -7.44996384      -4.27519279      -2.07422309
H       -8.77559302      -4.34563288      -1.34645893
O        2.75690803      -2.18225635       8.21250574
H        2.73277020      -2.67802016       7.39405143
H        3.58276056      -1.69965654       8.17649389
O        3.90899665       2.40477456      -7.68822386
H        3.25909475       1.93346766      -8.20950035
H        3.97382221       1.90364005      -6.87527017
O       -6.98372483      -1.85083020      -5.34428133
H       -7.72078320      -1.26342562      -5.17715065
H       -6.28695634      -1.27698904      -5.66279637
O        3.27588905       3.85209401       7.49316001
H        3.62921134       4.62087399       7.04553010
H        2.32726939       3.93039591       7.39205913
O        8.39915130       0.55690448       3.29963246
H        8.77626924       0.60112499       2.42096390
H        9.13627330       0.72732055       3.88601235
O        1.01173498      -6.24451032       6.52055713
H        1.33633794      -6.48178092       5.65189873
H        0.28652063      -5.64354712       6.34985497
O       -5.14112052       3.97792994      -6.43254124
H       -5.26918819       4.79020194      -5.94259765
H       -4.88567591       3.33587000      -5.77016754
O        0.05983194      -2.34944700       8.85394406
H       -0.34206420      -1.48325935       8.78738359
H        0.99900940      -2.18544492       8.76861617
O       -7.55575820       4.92870855      -1.65117959
H       -7.83079651       4.06030734      -1.35713007
H       -6.96084619       5.23637545      -0.96732827
O        6.25353574      -6.47574133       1.79689321
H        5.30805190      -6.62323624       1.82007494
H        6.35984560      -5.55954175       2.05283925
O       -0.66572684       2.65206129       8.77615555
H       -0.83075059       3.36193095       9.39670698
H       -1.53517422       2.39370840       8.47030122
O        1.96024233      -8.26151513      -3.64880914
H        2.34911272      -7.53837953      -3.15678621
H        1.21314079      -7.86969672      -4.10108060
O       -6.04347718      -2.21026349       6.60879825
H       -5.97468008      -1.74493816       5.77514896
H       -6.57799210      -1.63823663       7.15953495
O        8.45892671       4.08655376       0.23729680
H        8.00464886       3.29833967       0.53492414
H        9.09952296       3.76856452      -0.39890374
O        7.58589894       3.94930805       3.86833221
H        7.47093643       3.39478069       3.09663611
H        7.38748484       3.37520422       4.60810817
O        1.46903118      -1.19795756      -9.20434570
H        1.11944533      -1.72065206      -8.48267263
H        2.30607929      -0.86770116      -8.87798238
O        0.93412558       9.34699547       0.51517328
H        1.45108752       9.91871898      -0.05237798
H        0.99840018       8.48303117       0.10815202
O        4.67368661       7.41576670       3.73784234
H        4.56312757       6.99768898       4.59178587
H        5.38501655       6.92835657       3.32230302
O        6.70226834      -6.55840932      -1.83665705
H        6.36598468      -6.56085563      -0.94047673
H        6.61382459      -5.64955247      -2.12369147
O        9.19091208      -2.55743293       0.60967615
H        8.67033958      -1.84301203       0.97688029
H        9.20130729      -2.38727524      -0.33222095
O       -6.22717963       6.52665311       3.22938399
H       -6.30611515       5.62739708       2.91104515
H       -5.28869266       6.71185528       3.19511747
O       -2.77587905      -2.61841681       8.79877613
H       -2.25911070      -2.68846303       9.60144408
H       -2.33663279      -1.93750476       8.28921422
O        9.60573455       0.95235538       0.46763310
H       10.21801684       1.64329286       0.72051181
H        8.74035494       1.34597736       0.57904097
O       -1.77385008       9.48879438       0.72768423
H       -0.85879863       9.20805083       0.71789922
H       -2.27215940       8.67900833       0.83798480
O        3.91535822       6.22918783       6.33604975
H        3.34527522       5.92354082       5.63048819
H        3.76011364       7.17276892       6.37830732
O       -2.33755303       8.84510934       3.30960378
H       -2.98887709       8.81509423       4.01039470
H       -2.62659323       8.18014978       2.68469068
391
Lattice="40.99360985075541 0.0 0.0 0.0 40.99360985075541 0.0 0.0 0.0 40.99360985075541" Properties=species:S:1:pos:R:3 charge=0 spin=8 spin_multiplicity=8 metal=Gd geometry=droplet boundary=pbc droplet_radius=9.729 pbc="T T T"
Gd      19.77559302      19.66820300      20.29825574
O       21.83248827      20.32450397      20.99922003
H       22.09144462      20.81214318      21.78943873
O       18.77931132      17.85898299      21.24008679
H       18.60393941      17.66062687      22.16701481
O       18.71497945      20.82112205      18.65546040
H       17.79677358      20.78188236      18.36450641
O       21.29404373      17.80616119      20.48589293
H       21.30136083      17.00158510      19.96739931
H       22.02501157      17.70539511      21.09561750
O       19.93074288      19.71099033      22.70287583
H       20.51297901      20.24531685      23.24299442
H       19.42394206      19.19746742      23.33190602
O       18.83439927      18.19798170      18.63671921
H       18.31176020      17.40914171      18.78098187
H       18.89942112      18.27198634      17.68460193
O       17.47109842      20.10281085      20.85370210
H       16.95376755      20.87971351      20.64151618
H       16.86796245      19.53721859      21.33595125
O       21.24328733      20.14322239      18.44668074
H       21.77781889      19.52444642      17.94906225
H       21.42236247      20.99295723      18.04404612
O       19.87998648      22.04805154      20.66366364
H       20.38121994      22.51692650      21.33086161
H       19.42951009      22.73628121      20.17413040
O       16.43513225      17.60664008      19.88378760
H       17.22259164      17.61482316      20.42791312
H       15.76270243      17.21425320      20.44065609
O       18.31993179      24.08414110      19.75936176
H       17.37865536      24.05671073      19.93105366
H       18.68523822      24.56630829      20.50118239
O       21.06296128      22.88865275      22.96418867
H       20.46454054      22.32102648      23.44990966
H       21.66998654      23.21977966      23.62608530
O       19.24559847      18.75736816      16.00681389
H       19.38009518      19.60910292      15.59125359
H       19.81588044      18.16094724      15.52174440
O       15.63892705      19.86496986      18.59366982
H       15.90439909      19.07867973      19.07064389
H       15.22712594      20.41988362      19.25603105
O       18.72634264      18.29595422      24.68920669
H       19.54864468      18.48405945      25.14160875
H       18.77552451      17.36322204      24.47986567
O       24.40145198      21.04059464      20.46474330
H       24.46934880      21.86383528      19.98111461
H       23.47530938      20.80523756      20.40907684
O       15.36944333      18.94995842      22.13915035
H       15.02838171      19.84422077      22.12487968
H       14.68247163      18.42453245      21.72899273
O       22.08038439      15.35305469      19.61277512
H       22.11315120      14.67372066      18.93922969
H       22.95898554      15.35698056      19.99261252
O       18.36906418      22.48832947      13.05793629
H       18.10406269      23.36401152      12.77653445
H       19.00832361      22.64294539      13.75340241
O       19.40798057      14.43993184      20.16801124
H       20.18702803      14.99594691      20.18082264
H       19.05624046      14.49915081      21.05627012
O       23.30417434      18.52542247      24.01012076
H       23.29263206      18.27935057      24.93507873
H       24.23362368      18.58699113      23.78974592
O       23.23339937      22.61188826      17.55612207
H       22.73237502      22.40624684      18.34537363
H       24.13321944      22.71947241      17.86431249
O       16.57948426      18.28842532      16.28436881
H       17.48718900      18.59216161      16.29131175
H       16.15491283      18.78494973      16.98396473
O       23.79671890      16.62274515      21.97232857
H       23.42911981      17.20802142      22.63456299
H       24.43882751      17.15937056      21.50761195
O       23.73493937      22.84186041      22.45748243
H       23.72561104      22.15777254      21.78802847
H       23.51093897      22.38648086      23.26907661
O       20.02109516      16.14717943      16.11424300
H       19.17748923      16.46935201      16.43167915
H       20.29452948      15.50486710      16.76914787
O       17.54714834      20.68322084      25.24495750
H       17.99725744      19.85491627      25.07899007
H       17.98071098      21.31180526      24.66777737
O       21.18677898      20.33187898      14.93390483
H       22.10381092      20.50775248      14.72330385
H       20.99165133      19.50814775      14.48711192
O       20.80906257      15.44897671      23.90576774
H       19.98436651      15.13820808      23.53222910
H       20.61328120      16.33237414      24.21803441
O       20.95637474      23.08001445      15.92718149
H       21.15183701      22.24168797      15.50857063
H       21.70486000      23.24176759      16.50149637
O       15.68208697      23.73728623      19.19407835
H       15.02006679      24.32157864      19.56362333
H       15.43313261      22.86636136      19.50350272
O       23.24406094      21.18679624      24.58525966
H       23.89324489      21.29381640      25.28048532
H       23.28614197      20.25778278      24.35855496
O       18.09212507      14.62365139      22.54144155
H       17.59175454      13.81622142      22.65941621
H       17.56085102      15.29901031      22.96318799
O       22.79543363      16.42502675      16.56084653
H       21.98934642      16.92201139      16.42134204
H       23.06950775      16.16081962      15.68260408
O       25.66552452      18.63285654      20.40712966
H       25.17219446      18.00433793      19.88004177
H       25.15186644      19.43930381      20.36207381
O       15.64631092      21.29596369      16.28053296
H       15.41183978      20.73378268      15.54215119
H       15.65375819      20.70871569      17.03638755
O       16.62584644      24.30366008      22.52039704
H       17.26176847      23.95105515      21.89789823
H       17.04196525      24.19574938      23.37563517
O       23.65680205      24.31092466      20.16965715
H       22.93316108      23.89082171      19.70480331
H       23.58535083      23.98719857      21.06761482
O       24.51211975      18.53025025      16.70341993
H       23.89953021      17.80643842      16.57279706
H       24.47363916      18.71068494      17.64267198
O       16.39596736      14.84141555      18.88983144
H       16.50552162      15.74091769      19.19825585
H       16.49418788      14.30446287      19.67613061
O       18.79611854      14.16401854      17.53212491
H       19.36107879      14.39632209      18.26906916
H       17.90862487      14.20255681      17.88863806
O       16.21536834      17.18120347      25.23789521
H       16.57860803      16.30320691      25.12209014
H       16.93552497      17.77040400      25.01328666
O       12.14715908      20.44277876      20.31876692
H       12.83764778      21.04362681      20.59883622
H       12.31375136      20.30355845      19.38651343
O       21.56488243      13.40759935      21.46433836
H       20.75421822      12.99012717      21.17318141
H       21.77430788      14.03422856      20.77172832
O       21.65597183      14.05610534      17.25986309
H       22.19062396      14.80763886      17.00378435
H       21.18758791      13.81168179      16.46167422
O       14.11279395      17.41233423      17.46066599
H       13.52703139      17.72844322      16.77277852
H       14.46211372      18.20770505      17.86265206
O       23.98691526      20.59599776      15.01367129
H       24.13289204      19.85317643      15.59945204
H       23.65897445      21.29090804      15.58444826
O       25.72371230      22.80043399      18.81093861
H       25.26717665      23.51723166      19.25140216
H       26.10536232      23.20253063      18.03062239
O       20.72358560      17.57604138      13.70941461
H       20.03170009      17.00457604      13.37631754
H       21.39087333      16.97600037      14.04244571
O       26.77961852      20.72298964      16.74379344
H       26.50387288      21.32293582      17.43680193
H       26.03351518      20.13542012      16.62411177
O       17.57363746      15.47769094      15.13434451
H       16.61812203      15.42461230      15.11422560
H       17.82235860      15.02303898      15.93911854
O       17.68955471      26.30625344      18.32318473
H       16.84710359      26.52691280      18.72044713
H       17.96930144      25.51245361      18.77909639
O       20.94470552      26.57182259      19.64163746
H       20.01271965      26.46101387      19.45360662
H       21.33887702      26.77076781      18.79235455
O       25.96873636      18.63860517      23.47561002
H       25.79909797      18.71068020      22.53632314
H       26.76508867      19.15089497      23.61566003
O       23.07133707      23.88093216      24.91722074
H       22.86066389      22.97230722      25.13227742
H       23.98468401      23.85448278      24.63203721
O       17.54482308      18.55435150      13.68305313
H       17.96250318      17.90765555      13.11423020
H       18.17418879      18.69364031      14.39067540
O       13.82067221      18.66255909      24.37599520
H       14.48103600      18.79522156      23.69588332
H       13.11184906      18.19490301      23.93429465
O       26.90416064      21.54629111      21.40223832
H       26.04512717      21.35567593      21.02546359
H       26.77116754      21.48148117      22.34793613
O       20.74889894      20.86822813      27.45871229
H       20.21497957      21.40408543      28.04524353
H       21.62972018      21.23538150      27.53343968
O       18.97920888      25.11469563      25.17322527
H       18.57491085      24.97006926      24.31773819
H       18.53345926      24.50022062      25.75628580
O       22.52568381      15.99653935      26.10689349
H       23.39616303      16.33660483      25.89988324
H       22.15514327      15.75310948      25.25855779
O       24.02365496      14.94000759      24.09736044
H       23.50338067      14.42603407      24.71491830
H       24.59473945      15.47324776      24.65030643
O       12.43636529      17.68352943      21.71388096
H       12.36505248      18.55763327      21.33035939
H       12.84003332      17.15246208      21.02740341
O       18.45532165      19.14953207      27.66195098
H       19.29674246      19.60165149      27.72384513
H       18.39242403      18.88410693      26.74444064
O       15.47952806      22.36276193      25.84816797
H       16.21638376      21.77702165      25.67443301
H       14.86094456      22.18707280      25.13914073
O       15.01524307      14.34522238      22.78370388
H       14.54890349      14.98651702      23.31989453
H       14.91915644      13.51985992      23.25886281
O       15.39866989      19.56535469      26.48302660
H       15.63923586      18.73439698      26.07330824
H       14.73335117      19.33028277      27.12980635
O       16.83817455      26.68235637      21.21842846
H       16.73323799      25.94230219      21.81637492
H       17.48240125      26.38303800      20.57685827
O       12.41015284      20.32857123      17.21783629
H       12.39380114      20.50642292      16.27744635
H       12.89917696      19.50970521      17.29874175
O       16.00850392      12.87128941      20.72473608
H       15.77030283      13.33093710      21.52985475
H       16.90776543      12.57854854      20.87259873
O       17.80026312      23.34401768      26.87272940
H       17.18351603      22.66732647      27.15191370
H       17.91597563      23.89685809      27.64552300
O       13.14517605      21.27969280      24.07150205
H       13.29087238      20.34374399      24.20935791
H       12.20991745      21.40339109      24.23343389
O       24.11694582      25.67356522      17.86100418
H       23.94521123      25.24559235      18.69979993
H       24.56436643      25.00759951      17.33895407
O       14.94331548      16.16876475      15.18149605
H       14.09567004      16.59408473      15.05175801
H       15.43382491      16.77541093      15.73612453
O       14.93692808      19.68164376      13.99383660
H       14.87120577      20.38297031      13.34572126
H       15.82958172      19.34954333      13.89838699
O       17.95682256      25.70209332      15.43955870
H       18.20971314      26.52002090      15.01145511
H       17.86847379      25.93260868      16.36437706
O       18.48279141      11.81053179      20.33602666
H       18.69350726      11.47564471      21.20762364
H       18.92163373      12.66010868      20.29280202
O       13.28347392      23.61993640      22.69217844
H       13.20124944      22.76445779      23.11363702
H       12.80656067      23.52794517      21.86736137
O       26.30963984      15.83336838      22.92493577
H       26.60850146      16.73216503      23.06305951
H       25.37610716      15.91799263      22.73106134
O       26.17919857      15.68702125      17.55756791
H       27.08754506      15.80383713      17.27919308
H       25.72823438      16.46911175      17.23945223
O       21.69011221      12.88853625      24.22796275
H       21.55788776      13.82145506      24.05940704
H       22.63165767      12.75585870      24.11786888
O       19.52058016      12.01015991      22.84232727
H       20.20052338      12.37832921      23.40656163
H       18.69804190      12.29381723      23.24132749
O       20.44376975      23.92861290      27.13451796
H       19.99866130      23.37267385      27.77408195
H       20.28607072      24.82138624      27.44163130
O       18.58705585      15.73358374      27.30585865
H       18.97879937      15.93667578      26.45643386
H       19.01925433      16.32915049      27.91801594
O       14.08943023      25.55876720      20.43664627
H       13.87928558      25.13859684      21.27062945
H       14.92293231      26.00211771      20.59459069
O       20.53335199      14.66580112      13.89129187
H       20.36294873      15.30605609      14.58213784
H       19.93744291      14.91184151      13.18376919
O       23.19687833      19.11084951      12.87624845
H       23.54690592      19.63646657      13.59558095
H       22.58023810      18.51067593      13.29550772
O       13.85402368      15.95578572      24.64275104
H       14.53833284      16.58690703      24.86554850
H       13.35024897      15.85301181      25.45014215
O       16.06388592      14.25887503      25.29203326
H       15.73730718      13.62720995      25.93279639
H       15.30524412      14.80453120      25.08478023
O       23.58900926      15.17545949      14.27891093
H       22.65326607      15.00148528      14.17717847
H       23.72634142      16.01442902      13.83902248
O       25.45734189      16.79040607      25.81271271
H       25.83837464      17.21697280      26.58023255
H       25.63923829      17.39056934      25.08956017
O       16.86300671      12.30659404      23.34015268
H       16.56682982      12.89996577      24.03038531
H       16.05955452      11.90957801      23.00388686
O       28.17973100      18.79872923      18.92542308
H       28.71282321      19.34191774      19.50593214
H       27.43594158      18.52966616      19.46450953
O       16.76352721      21.20965801      28.20242552
H       17.34977189      20.47499964      28.02124579
H       16.06123889      21.12082538      27.55811836
O       18.67508646      16.11962894      12.53790845
H       18.34987974      16.02980367      13.43367842
H       18.05424660      15.62163010      12.00613138
O       19.46359943      12.43200287      15.54095460
H       19.16215426      13.00190507      16.24846723
H       19.99542250      13.00101818      14.98452165
O       21.48938323      25.90490650      14.48108465
H       21.30580642      25.06707582      14.90602128
H       22.41519251      25.85549629      14.24303497
O       14.32641056      26.03306541      17.69934156
H       14.38471135      25.99258499      18.65390648
H       13.61552198      25.43201233      17.47662096
O       17.05876020      12.09922033      16.76749609
H       16.23979738      12.36670620      17.18460886
H       17.63310976      11.86304801      17.49590330
O       19.87356875      27.54108270      24.32991854
H       19.57238795      26.73909250      24.75692402
H       19.07733086      27.93930963      23.97827615
O       24.53056160      21.24329336      27.63023898
H       23.96659064      20.60644786      27.19138090
H       24.00939314      22.04565434      27.65908580
O       14.65811552      12.83756365      17.81160064
H       15.13136674      13.45809598      18.36586118
H       14.55611955      12.05777031      18.35726630
O       22.36083333      27.33999894      16.62105765
H       21.95033897      26.90326228      15.87474182
H       22.89495848      26.66062719      17.03263533
O       13.16546048      14.85833646      16.76907574
H       13.63810811      15.68891193      16.82366920
H       13.80621922      14.19953823      17.03674152
O       11.87563881      15.70492627      19.00917524
H       12.32562918      15.39301021      18.22403265
H       11.00000000      15.32257012      18.95179681
O       22.53250104      17.48594665      28.51076147
H       22.50836321      16.99018284      27.69230717
H       23.35835358      17.96854646      28.47474963
O       23.68458966      22.07297756      12.61003188
H       23.03468777      21.60167066      12.08875539
H       23.74941523      21.57184305      13.42298557
O       12.79186818      17.81737280      14.95397441
H       12.05480982      18.40477738      15.12110509
H       13.48863668      18.39121396      14.63545937
O       23.05148206      23.52029701      27.79141575
H       23.40480435      24.28907699      27.34378584
H       22.10286240      23.59859891      27.69031487
O       28.17474432      20.22510748      23.59788820
H       28.55186226      20.26932799      22.71921964
H       28.91186632      20.39552355      24.18426808
O       20.78732799      13.42369268      26.81881287
H       21.11193095      13.18642208      25.95015447
H       20.06211365      14.02465588      26.64811071
O       14.63447250      23.64613294      13.86571450
H       14.50640482      24.45840494      14.35565809
H       14.88991710      23.00407300      14.52808820
O       19.83542495      17.31875600      29.15219980
H       19.43352881      18.18494365      29.08563933
H       20.77460242      17.48275808      29.06687191
O       12.21983482      24.59691155      18.64707615
H       11.94479651      23.72851034      18.94112567
H       12.81474682      24.90457845      19.33092747
O       26.02912876      13.19246167      22.09514895
H       25.08364491      13.04496676      22.11833068
H       26.13543861      14.10866125      22.35109498
O       19.10986618      22.32026429      29.07441129
H       18.94484243      23.03013395      29.69496272
H       18.24041879      22.06191140      28.76855696
O       21.73583534      11.40668787      16.64944660
H       22.12470574      12.12982347      17.14146953
H       20.98873381      11.79850628      16.19717514
O       13.73211583      17.45793951      26.90705399
H       13.80091294      17.92326483      26.07340470
H       13.19760091      18.02996637      27.45779069
O       28.23451973      23.75475676      20.53555254
H       27.78024188      22.96654267      20.83317987
H       28.87511597      23.43676752      19.89935200
O       27.36149196      23.61751105      24.16658795
H       27.24652945      23.06298369      23.39489185
H       27.16307785      23.04340722      24.90636391
O       21.24462420      18.47024544      11.09391004
H       20.89503834      17.94755094      11.81558311
H       22.08167230      18.80050184      11.42027336
O       20.70971859      29.01519847      20.81342901
H       21.22668053      29.58692198      20.24587776
H       20.77399319      28.15123417      20.40640776
O       24.44927962      27.08396970      24.03609808
H       24.33872058      26.66589198      24.89004161
H       25.16060956      26.59655957      23.62055876
O       26.47786135      13.10979367      18.46159869
H       26.14157770      13.10734737      19.35777901
H       26.38941760      14.01865053      18.17456427
O       28.96650510      17.11077007      20.90793189
H       28.44593259      17.82519097      21.27513602
H       28.97690031      17.28092776      19.96603479
O       13.54841338      26.19485611      23.52763973
H       13.46947786      25.29560008      23.20930089
H       14.48690036      26.38005828      23.49337321
O       16.99971397      17.04978619      29.09703187
H       17.51648232      16.97973997      29.89969982
H       17.43896023      17.73069824      28.58746996
O       29.38132756      20.62055838      20.76588884
H       29.99360985      21.31149586      21.01876755
H       28.51594795      21.01418035      20.87729670
O       18.00174294      29.15699738      21.02593997
H       18.91679439      28.87625383      21.01615496
H       17.50343361      28.34721133      21.13624054
O       23.69095124      25.89739083      26.63430549
H       23.12086823      25.59174382      25.92874393
H       23.53570665      26.84097192      26.67656306
O       17.43803998      28.51331234      23.60785952
H       16.78671593      28.48329723      24.30865044
H       17.14899978      27.84835278      22.98294642
391
Lattice="15.781866235591567 0.0 0.0 0.0 15.781866235591567 0.0 0.0 0.0 15.781866235591567" Properties=species:S:1:pos:R:3 charge=0 spin=6 spin_multiplicity=6 metal=Dy geometry=box boundary=pbc pbc="T T T"
Dy       7.89093312       7.89093312       7.89093312
O        7.91139515       9.78115281       6.70790699
H        7.95030865      10.69750730       7.00468334
O        9.83873054       7.02210423       8.54217928
H       10.63658586       7.45927976       8.86092754
O        6.28838145       7.63705005       6.36113852
H        5.68863141       8.28740678       5.97821291
O        8.84216687       9.51383281       9.33254712
H        9.54349506       9.39020223       9.97214550
H        8.61114333      10.43985003       9.40570493
O        9.03152668       7.35354743       5.88415387
H        9.23731279       6.48352995       5.54216920
H        9.38966761       7.95787312       5.23395593
O        6.05387522       9.14866365       8.70347985
H        5.98467573       9.61251304       9.53791799
H        5.21480495       9.30665563       8.27077734
O        7.50226610       7.07524103      10.08193389
H        6.66652435       7.01369224      10.54451286
H        8.14584489       6.73349907      10.70261949
O        7.63616370       5.54768858       7.64355164
H        7.07796899       4.96182830       8.15484238
H        8.06839648       4.97501263       7.00995167
O        7.72157885      11.21419201       1.51423753
H        8.51018279      10.98122421       2.00419840
H        7.63103887      10.52026468       0.86116846
O       12.07176782      13.19270003       9.25211770
H       11.67432345      12.44316558       8.80887070
H       12.46448597      13.70773151       8.54731498
O       11.41339092      15.53000311       1.40313960
H       10.60090183      15.02394795       1.40191663
H       11.13478652      16.43163356       1.24290862
O        5.90800605       7.92736561      13.71012807
H        6.17046848       7.26220041      13.07381010
H        6.48497231       7.78291886      14.46011267
O        4.03952761      10.61633384       1.71398736
H        4.61667956      11.28667592       2.07973177
H        4.36675453      10.47676060       0.82535150
O        7.28788544       7.14770931       0.18782085
H        7.36993523       6.34318312      -0.32427025
H        8.17752606       7.49870162       0.22751706
O        3.61157560       4.56469127      13.52001688
H        4.24388388       5.28013883      13.45254199
H        3.17536631       4.70833651      14.35984981
O        5.25716833      14.19987001       0.13081212
H        5.31556527      13.68941707       0.93843793
H        6.16742549      14.35999071      -0.11823626
O        7.28598389       5.90274821      12.52670023
H        8.09152090       5.41328520      12.36006311
H        6.61805278       5.44730240      12.01418781
O       15.16125325      11.54432248       2.97506062
H       15.91958488      11.69172941       2.40987378
H       15.28811416      12.14598897       3.70863787
O        0.18464972      15.20275218       1.53016965
H       -0.18064513      15.47926727       2.37060460
H       -0.51827308      14.70213767       1.11602414
O       14.14422929       9.92109545       8.96562159
H       13.68327569      10.26160475       9.73230734
H       14.52343796      10.69551742       8.55004580
O        5.10252412      11.85303965       7.60167606
H        5.86439612      11.38006977       7.93646315
H        5.46461280      12.65446314       7.22372897
O        7.03186780       4.06577554       1.11015555
H        6.93177738       3.70587346       0.22885864
H        6.35450747       4.73919909       1.17272980
O       15.65829901      13.45553266       4.96934358
H       15.26842569      14.10253962       4.38145531
H       16.60231544      13.56921975       4.85916155
O        5.00761328      10.52662238      14.86681203
H        5.58311648      11.12667322      14.39250527
H        5.21352537       9.66317947      14.50862438
O       14.40200951      12.04946288       0.08206695
H       13.55171846      11.63157673      -0.05434466
H       14.64260593      11.81687558       0.97886589
O       15.65272901       1.73418521       7.41060302
H       16.42752597       1.25026892       7.69651653
H       15.27401221       1.19314771       6.71772219
O       13.98973310      12.29119448      13.10788379
H       14.89364416      12.55977507      13.27232558
H       13.47984044      12.73838120      13.78335796
O        8.87783243       0.87806517      11.85322464
H        9.67520184       1.06960553      11.35951809
H        8.84804671       1.55231902      12.53199294
O        1.91843777       0.96463443       4.82321168
H        2.16662453       1.23715675       3.93982798
H        2.73593796       0.98925205       5.32052370
O        0.37291499       2.86443731       2.22525542
H       -0.27526643       3.27807751       1.65517256
H        0.45791185       1.97369942       1.88526514
O        0.73384288      11.90770977      14.15789112
H        0.18204892      11.99706256      14.93491836
H        0.97080982      12.80597428      13.92724121
O       15.64478418      15.55551930      14.27377535
H       14.95864750      16.16140954      14.55367770
H       15.95179932      15.14955942      15.08443565
O        8.21953824       2.75674325      13.70812500
H        8.86204475       3.38711479      13.38247340
H        8.41160349       2.67934989      14.64265859
O       11.77761069      13.02603730       4.98470008
H       11.93772000      12.53051756       4.18154565
H       12.22661131      13.85989939       4.84576019
O       13.68405525       8.87641395       6.36716457
H       13.43815777       9.62901071       5.82923856
H       13.83698209       9.24348481       7.23785637
O        9.91476072      11.14733679      14.84969127
H       10.45669689      11.31640278      14.07900734
H        9.02211226      11.33888037      14.56207761
O       11.45939676       4.16554913       9.78937225
H       11.64298454       4.95915052      10.29208907
H       11.58396944       4.42547750       8.87660134
O       11.06392799      15.76821259      10.50270009
H       11.85058578      16.31121051      10.55324346
H       11.33856784      14.99284634      10.01319833
O        3.13490065       9.25528233      12.02545534
H        2.45342541       9.37589343      11.36418663
H        3.34069482      10.14167176      12.32243072
O        7.15740529       2.88335962      11.20720661
H        6.36427112       3.41906657      11.22092074
H        7.42898287       2.83316950      12.12369906
O        9.64824953       5.88410793      15.48973871
H        9.14067883       5.07401490      15.53824756
H       10.33067473       5.77980011      16.15279796
O        0.54780549       8.89638095       7.03324357
H        0.50738029       7.94220182       6.96890212
H       -0.07634134       9.11694948       7.72463500
O        3.43535521       7.03957879       5.42898784
H        3.81850591       7.90492121       5.57254920
H        3.64292544       6.55015328       6.22498351
O        6.78989996      10.63443101      10.85967161
H        7.12573462      10.95336425      11.69736399
H        7.05767920      11.29908758      10.22503963
O        7.32968074      12.58267966      13.56990923
H        7.87334373      13.00313797      12.90366814
H        6.53143200      12.33185317      13.10502553
O        5.05335898       5.93186821       1.15064667
H        5.64638919       6.55387298       0.72915279
H        4.28100586       5.91592879       0.58544898
O        4.75742691      15.16626343      13.36903829
H        5.56835245      15.27645631      13.86551501
H        4.06331522      15.23724886      14.02432592
O        4.93301211       1.08706821       8.71797126
H        4.61675750       1.39176939       9.56848408
H        5.80267507       0.73049235       8.89900116
O        5.81923569       2.52288254       6.57850368
H        6.42237431       3.18136987       6.92325009
H        5.53715702       2.02924157       7.34855696
O       12.16417008       5.13920719       6.59977220
H       12.61283219       5.15809048       5.75444530
H       11.92898022       4.21999873       6.72615798
O        7.20172922       0.09439194       9.84310343
H        7.86823872       0.55356097      10.35414230
H        7.67343173      -0.24312706       9.08165120
O       13.69723045       3.15542870       4.20026479
H       13.38501729       4.05191119       4.07748890
H       14.45326009       3.08270424       3.61771677
O       14.08529211      14.55432087       6.89723685
H       14.61602288      14.11300056       6.23406789
H       13.58261338      15.20557896       6.40794264
O        0.43232473       6.28583713       6.19975986
H        0.34745137       5.59512831       6.85698864
H        1.37614376       6.37984787       6.07092097
O        9.78747217       1.97589417       8.97959621
H       10.37478895       2.70554923       9.17681269
H       10.23172252       1.20693704       9.33677738
O        3.89257990      13.13246631      11.59243225
H        4.26113908      13.82958677      12.13503618
H        4.60216724      12.89124313      10.99700885
O        9.30121036       4.67517346       5.49430308
H       10.18991524       4.66430522       5.84971461
H        9.25472945       3.89592965       4.94036225
O        2.96544085      11.38247169       9.21717656
H        3.25036939      11.77962601      10.04016867
H        3.76253924      11.32363046       8.69048526
O        0.45289995      10.09008293      10.69752851
H       -0.19221128       9.69870352      10.10855865
H        1.22140427      10.23919456      10.14671213
O       14.36948502      15.52872814      11.75725325
H       14.89397210      15.52156469      12.55793660
H       13.47589055      15.69533287      12.05719263
O        3.54402030       0.53056725       2.09832314
H        3.83072850       0.77148156       2.97922640
H        3.66890164       1.32525627       1.57956900
O        1.87915048      14.14402580      13.11600846
H        1.15477716      14.67895728      13.44060584
H        1.73513535      14.09296098      12.17108314
O        9.25519998      13.98999790      11.48485296
H        9.06624334      13.50824972      10.67959156
H        9.79845161      14.72577485      11.20246707
O       13.85762977       4.09326379       0.34438844
H       14.68627207       4.52032915       0.12713520
H       14.01737965       3.16336812       0.18312513
O       13.48149307       9.86723800      11.98229982
H       14.41648576       9.87006448      11.77733027
H       13.33821591      10.68382939      12.46071595
O       11.57576500       5.53354931       1.59470362
H       12.24795959       5.19963782       1.00065868
H       12.03176357       5.65892236       2.42691678
O       15.47198660       4.38403018       7.99716412
H       15.49639999       3.44662615       7.80504567
H       15.26549724       4.43240786       8.93057377
O       15.28591371      11.82007787       7.16750250
H       15.70994971      10.97734696       7.00554599
H       15.39722859      12.30574131       6.35020704
O        2.80802470      15.56942390      15.26872104
H        2.71189816      14.62792930      15.41217647
H        2.70344202      15.95652670      16.13788484
O       12.19041506      13.72759226      15.03799747
H       11.39134765      13.69950667      14.51175199
H       11.97429518      14.30273429      15.77198363
O       13.35514309       1.02515260      15.04172555
H       12.84778373       0.59720130      15.73141824
H       13.02708404       0.64074756      14.22880375
O       10.87934562      11.01600145       8.13920970
H       10.27468610      10.30196728       8.34113519
H       10.45954524      11.49025210       7.42151491
O        5.63653463      12.68827000       2.45901356
H        6.36236222      12.17185582       2.10869579
H        5.60146471      12.45457457       3.38658479
O        2.09217348      11.68533166       3.51160457
H        2.73482764      11.34765746       2.88774272
H        2.34677022      11.30063731       4.35030750
O        7.60236459       9.72535665      15.02056125
H        7.47017331       9.58525910      14.08294193
H        8.48074550       9.38603000      15.19242235
O        7.88263125       0.27191071       2.29574582
H        8.27553270       1.02148977       1.84854170
H        8.40270156      -0.47856282       2.00843382
O       12.28486120      10.31986095       0.11487196
H       12.28053026      10.59030842       1.03306107
H       11.36971160      10.38357112      -0.15839361
O        8.04744218      12.60823891       8.75044067
H        8.64924844      12.10407307       8.20282961
H        7.54074259      13.13259309       8.13032773
O       12.94317914       2.41200034      11.85940992
H       12.49957230       1.60117115      12.10840958
H       12.35493061       2.82251393      11.22563227
O       11.68762511       3.89378229      14.49797904
H       11.05918789       4.52582270      14.84701116
H       11.74064169       3.21275384      15.16851714
O        9.42967271       8.10220187      12.97671554
H        9.87149051       8.24917985      13.81303267
H        9.89428068       8.66531959      12.35762774
O        3.22193922       2.39439038       0.14364555
H        3.85448391       2.35754744      -0.57382337
H        2.97601412       3.31776630       0.19958840
O        9.77917646       4.85416570      12.81456361
H       10.70214468       4.60063466      12.82370319
H        9.64748593       5.31077127      13.64546722
O        2.63058169       5.04534761       0.28902283
H        2.44605393       5.93102190      -0.02364696
H        2.06632700       4.93877873       1.05485020
O        0.41275874       6.56071011       3.49375500
H        0.30580637       6.44706571       4.43814792
H        1.30998681       6.87773578       3.39027383
O       12.47676823      11.54259411       2.53695687
H       12.28519721      10.83246647       3.14953432
H       13.43124802      11.61439192       2.54368341
O       14.81113708       9.38111088      15.52920815
H       13.86364653       9.51137225      15.49015087
H       15.13061495       9.68687966      14.68028460
O       14.77934531       0.11030759       4.11889465
H       14.29006154       0.91692707       3.95703593
H       15.68701443       0.39657903       4.22095962
O        3.19573136      14.09960791       4.45185064
H        2.86778749      14.78926518       3.87473928
H        2.76826862      13.30206080       4.13971916
O       11.35160907       2.54590571       6.71289545
H       10.59033216       2.16990065       7.15483380
H       11.10659957       2.56557950       5.78779268
O       11.00410783       9.21809410      11.05938133
H       11.67066003       9.70166121      11.54733916
H       11.49959448       8.58805825      10.53614175
O        9.11968150       2.32545686       1.01095033
H       10.05967138       2.50611753       1.00740043
H        8.70939737       3.18941599       1.04933499
O        8.40064657      15.67132497       7.39505375
H        8.86523648      16.43395321       7.73970751
H        8.93701411      15.37583133       6.65937365
O        9.94301423       8.59768990       0.07570651
H       10.08774626       7.66196613      -0.06466982
H       10.15342165       8.73721636       0.99901194
O       11.83820004       2.41047332       1.04247796
H       11.75092164       3.26677572       1.46123866
H       12.61414709       2.02317153       1.44761416
O        2.06482399       4.21342869       4.40518233
H        1.60321584       5.00435507       4.12664109
H        1.66421881       3.50952161       3.89502337
O        4.83757864       7.25639906      10.59673689
H        4.29047186       7.66737962      11.26606565
H        4.34614704       7.36850353       9.78300511
O        0.49317169       7.64987808       9.45019398
H        1.43134796       7.65404268       9.26035250
H        0.43722226       7.42447812      10.37879311
O       12.73096133       7.68865441       9.61159111
H       13.21451140       8.44273583       9.27428946
H       13.28448428       7.34211354      10.31141509
O        5.20512846       3.25744206       3.97742798
H        5.41006460       2.90449347       4.84325724
H        4.31142089       3.59032071       4.05934515
O        7.70153874      15.72251588      14.99132847
H        8.40318877      15.13729851      15.27670491
H        8.15451929      16.45136687      14.56728047
O       13.48976921       6.30354376       3.36730201
H       14.44137751       6.22649590       3.29847530
H       13.30232437       7.20467009       3.10449483
O        0.48026473       2.57169546      10.35727721
H        1.01801750       3.36000567      10.28230525
H        0.32576877       2.29964908       9.45264822
O        1.38454902       6.07626063      13.12770330
H        0.91429047       6.06857948      13.96138773
H        0.88291993       6.67527168      12.57472424
O        2.38640563       0.26303455       8.23405575
H        2.48104903      -0.66377083       8.01426891
H        3.28439801       0.59053286       8.28491236
O        4.72209886       9.80256436       5.85547262
H        4.90879070      10.18036094       4.99602644
H        4.86054559      10.52349590       6.46973808
O        7.65806529       7.99037664       2.79994314
H        6.88587700       8.12143478       3.35019841
H        7.30788088       7.67957913       1.96507332
O        3.96539879       4.30212306      10.72907341
H        3.84384580       4.13501044      11.66370172
H        4.28338024       5.20392946      10.68588947
O        3.07077744       7.74233981       8.58659410
H        3.73842024       8.07200692       7.98509221
H        3.03782847       6.80103668       8.41602262
O        2.79255125      13.51361701       7.32518293
H        3.46350164      12.86233632       7.52985552
H        2.91328813      13.69798436       6.39369856
O        0.59404042       9.32868952      13.30495981
H        1.39908273       8.94934232      12.95249078
H        0.82517285      10.23478554      13.50940940
O       12.30536827       0.42421346       8.12246345
H       13.13228730       0.54698121       8.58868748
H       12.20360028       1.22019367       7.60064871
O        6.24290284      14.15940433       6.71930719
H        6.36061615      13.73278348       5.87056102
H        7.04337271      14.66904025       6.84481044
O        9.63030797      13.61846362       0.16844816
H        9.88902275      12.77983232      -0.21364613
H        8.82577268      13.42496182       0.64960494
O       15.02882642       7.12072295      11.80928999
H       15.20522462       7.98501399      12.18093028
H       14.60931721       6.63515154      12.51954647
O        4.49622916       0.26570950       5.83480325
H        4.14044420      -0.39352627       5.23893656
H        5.23489277      -0.16936636       6.26061647
O       11.90568695      15.59763747      13.08342426
H       11.35337490      15.58416399      12.30175829
H       11.28756956      15.63257428      13.81345313
O        9.36159557       1.76141109       4.33518886
H        8.97596980       1.22123873       3.64545092
H        9.72750010       1.13197855       4.95660690
O        2.92462302       4.84953202       7.91022632
H        3.34207359       4.67575803       8.75389062
H        2.00350744       4.62878873       8.04824926
O       13.54981979       8.68659950       2.05498152
H       13.88781497       9.57653048       2.15505124
H       12.60729432       8.77019001       2.19951597
O        0.11473163      14.40049443       9.80830141
H       -0.22382708      14.83748318      10.58974282
H        0.78998270      14.99202612       9.47609952
O       13.71430101       5.25716538      13.29171287
H       12.91837028       4.88241382      13.66892286
H       14.39507562       5.07676350      13.93996663
O        1.85891624       7.88749874      15.23407041
H        1.19426620       8.41788556      14.79456843
H        2.57957189       8.49517611      15.40024945
O        0.07030516       5.90207671      15.74084950
H       -0.63468144       6.31948432      15.24587817
H        0.60745117       6.62996384      16.05371741
O        0.37745408       9.43499278       4.37255533
H       -0.20764248      10.15357692       4.13269978
H        0.28714887       9.35884550       5.32243869
O        9.08889058      14.88677821       4.87011987
H        9.50242074      14.03149096       4.75303715
H        8.66587381      15.06579420       4.03033303
O        1.99089728       2.24923608      13.20910872
H        1.59651090       2.36429706      12.34455554
H        2.43372526       3.07976530      13.38333969
O        5.38499961       2.60848969      14.17319582
H        4.83322220       3.26512590      13.74822238
H        6.27452641       2.95195177      14.08948375
O       10.75793659       7.92730884       2.66525461
H       10.46977695       8.80644421       2.91084951
H        9.99022669       7.37408635       2.80947055
O        2.50214306      12.65454976       0.34919656
H        2.20522698      12.25690679      -0.46930985
H        3.10420196      12.01157502       0.72381692
O        9.96808856      10.48754006       3.22884667
H        9.67044399      10.82501843       4.07368269
H       10.39230897      11.23516771       2.80775074
391
Properties=species:S:1:pos:R:3 charge=0 spin=6 spin_multiplicity=6 metal=Dy geometry=box boundary=non-pbc pbc="F F F"
Dy       7.89093312       7.89093312       7.89093312
O        7.91139515       9.78115281       6.70790699
H        7.95030865      10.69750730       7.00468334
O        9.83873054       7.02210423       8.54217928
H       10.63658586       7.45927976       8.86092754
O        6.28838145       7.63705005       6.36113852
H        5.68863141       8.28740678       5.97821291
O        8.84216687       9.51383281       9.33254712
H        9.54349506       9.39020223       9.97214550
H        8.61114333      10.43985003       9.40570493
O        9.03152668       7.35354743       5.88415387
H        9.23731279       6.48352995       5.54216920
H        9.38966761       7.95787312       5.23395593
O        6.05387522       9.14866365       8.70347985
H        5.98467573       9.61251304       9.53791799
H        5.21480495       9.30665563       8.27077734
O        7.50226610       7.07524103      10.08193389
H        6.66652435       7.01369224      10.54451286
H        8.14584489       6.73349907      10.70261949
O        7.63616370       5.54768858       7.64355164
H        7.07796899       4.96182830       8.15484238
H        8.06839648       4.97501263       7.00995167
O        7.72157885      11.21419201       1.51423753
H        8.51018279      10.98122421       2.00419840
H        7.63103887      10.52026468       0.86116846
O       12.07176782      13.19270003       9.25211770
H       11.67432345      12.44316558       8.80887070
H       12.46448597      13.70773151       8.54731498
O       11.41339092      15.53000311       1.40313960
H       10.60090183      15.02394795       1.40191663
H       11.13478652      16.43163356       1.24290862
O        5.90800605       7.92736561      13.71012807
H        6.17046848       7.26220041      13.07381010
H        6.48497231       7.78291886      14.46011267
O        4.03952761      10.61633384       1.71398736
H        4.61667956      11.28667592       2.07973177
H        4.36675453      10.47676060       0.82535150
O        7.28788544       7.14770931       0.18782085
H        7.36993523       6.34318312      -0.32427025
H        8.17752606       7.49870162       0.22751706
O        3.61157560       4.56469127      13.52001688
H        4.24388388       5.28013883      13.45254199
H        3.17536631       4.70833651      14.35984981
O        5.25716833      14.19987001       0.13081212
H        5.31556527      13.68941707       0.93843793
H        6.16742549      14.35999071      -0.11823626
O        7.28598389       5.90274821      12.52670023
H        8.09152090       5.41328520      12.36006311
H        6.61805278       5.44730240      12.01418781
O       15.16125325      11.54432248       2.97506062
H       15.91958488      11.69172941       2.40987378
H       15.28811416      12.14598897       3.70863787
O        0.18464972      15.20275218       1.53016965
H       -0.18064513      15.47926727       2.37060460
H       -0.51827308      14.70213767       1.11602414
O       14.14422929       9.92109545       8.96562159
H       13.68327569      10.26160475       9.73230734
H       14.52343796      10.69551742       8.55004580
O        5.10252412      11.85303965       7.60167606
H        5.86439612      11.38006977       7.93646315
H        5.46461280      12.65446314       7.22372897
O        7.03186780       4.06577554       1.11015555
H        6.93177738       3.70587346       0.22885864
H        6.35450747       4.73919909       1.17272980
O       15.65829901      13.45553266       4.96934358
H       15.26842569      14.10253962       4.38145531
H       16.60231544      13.56921975       4.85916155
O        5.00761328      10.52662238      14.86681203
H        5.58311648      11.12667322      14.39250527
H        5.21352537       9.66317947      14.50862438
O       14.40200951      12.04946288       0.08206695
H       13.55171846      11.63157673      -0.05434466
H       14.64260593      11.81687558       0.97886589
O       15.65272901       1.73418521       7.41060302
H       16.42752597       1.25026892       7.69651653
H       15.27401221       1.19314771       6.71772219
O       13.98973310      12.29119448      13.10788379
H       14.89364416      12.55977507      13.27232558
H       13.47984044      12.73838120      13.78335796
O        8.87783243       0.87806517      11.85322464
H        9.67520184       1.06960553      11.35951809
H        8.84804671       1.55231902      12.53199294
O        1.91843777       0.96463443       4.82321168
H        2.16662453       1.23715675       3.93982798
H        2.73593796       0.98925205       5.32052370
O        0.37291499       2.86443731       2.22525542
H       -0.27526643       3.27807751       1.65517256
H        0.45791185       1.97369942       1.88526514
O        0.73384288      11.90770977      14.15789112
H        0.18204892      11.99706256      14.93491836
H        0.97080982      12.80597428      13.92724121
O       15.64478418      15.55551930      14.27377535
H       14.95864750      16.16140954      14.55367770
H       15.95179932      15.14955942      15.08443565
O        8.21953824       2.75674325      13.70812500
H        8.86204475       3.38711479      13.38247340
H        8.41160349       2.67934989      14.64265859
O       11.77761069      13.02603730       4.98470008
H       11.93772000      12.53051756       4.18154565
H       12.22661131      13.85989939       4.84576019
O       13.68405525       8.87641395       6.36716457
H       13.43815777       9.62901071       5.82923856
H       13.83698209       9.24348481       7.23785637
O        9.91476072      11.14733679      14.84969127
H       10.45669689      11.31640278      14.07900734
H        9.02211226      11.33888037      14.56207761
O       11.45939676       4.16554913       9.78937225
H       11.64298454       4.95915052      10.29208907
H       11.58396944       4.42547750       8.87660134
O       11.06392799      15.76821259      10.50270009
H       11.85058578      16.31121051      10.55324346
H       11.33856784      14.99284634      10.01319833
O        3.13490065       9.25528233      12.02545534
H        2.45342541       9.37589343      11.36418663
H        3.34069482      10.14167176      12.32243072
O        7.15740529       2.88335962      11.20720661
H        6.36427112       3.41906657      11.22092074
H        7.42898287       2.83316950      12.12369906
O        9.64824953       5.88410793      15.48973871
H        9.14067883       5.07401490      15.53824756
H       10.33067473       5.77980011      16.15279796
O        0.54780549       8.89638095       7.03324357
H        0.50738029       7.94220182       6.96890212
H       -0.07634134       9.11694948       7.72463500
O        3.43535521       7.03957879       5.42898784
H        3.81850591       7.90492121       5.57254920
H        3.64292544       6.55015328       6.22498351
O        6.78989996      10.63443101      10.85967161
H        7.12573462      10.95336425      11.69736399
H        7.05767920      11.29908758      10.22503963
O        7.32968074      12.58267966      13.56990923
H        7.87334373      13.00313797      12.90366814
H        6.53143200      12.33185317      13.10502553
O        5.05335898       5.93186821       1.15064667
H        5.64638919       6.55387298       0.72915279
H        4.28100586       5.91592879       0.58544898
O        4.75742691      15.16626343      13.36903829
H        5.56835245      15.27645631      13.86551501
H        4.06331522      15.23724886      14.02432592
O        4.93301211       1.08706821       8.71797126
H        4.61675750       1.39176939       9.56848408
H        5.80267507       0.73049235       8.89900116
O        5.81923569       2.52288254       6.57850368
H        6.42237431       3.18136987       6.92325009
H        5.53715702       2.02924157       7.34855696
O       12.16417008       5.13920719       6.59977220
H       12.61283219       5.15809048       5.75444530
H       11.92898022       4.21999873       6.72615798
O        7.20172922       0.09439194       9.84310343
H        7.86823872       0.55356097      10.35414230
H        7.67343173      -0.24312706       9.08165120
O       13.69723045       3.15542870       4.20026479
H       13.38501729       4.05191119       4.07748890
H       14.45326009       3.08270424       3.61771677
O       14.08529211      14.55432087       6.89723685
H       14.61602288      14.11300056       6.23406789
H       13.58261338      15.20557896       6.40794264
O        0.43232473       6.28583713       6.19975986
H        0.34745137       5.59512831       6.85698864
H        1.37614376       6.37984787       6.07092097
O        9.78747217       1.97589417       8.97959621
H       10.37478895       2.70554923       9.17681269
H       10.23172252       1.20693704       9.33677738
O        3.89257990      13.13246631      11.59243225
H        4.26113908      13.82958677      12.13503618
H        4.60216724      12.89124313      10.99700885
O        9.30121036       4.67517346       5.49430308
H       10.18991524       4.66430522       5.84971461
H        9.25472945       3.89592965       4.94036225
O        2.96544085      11.38247169       9.21717656
H        3.25036939      11.77962601      10.04016867
H        3.76253924      11.32363046       8.69048526
O        0.45289995      10.09008293      10.69752851
H       -0.19221128       9.69870352      10.10855865
H        1.22140427      10.23919456      10.14671213
O       14.36948502      15.52872814      11.75725325
H       14.89397210      15.52156469      12.55793660
H       13.47589055      15.69533287      12.05719263
O        3.54402030       0.53056725       2.09832314
H        3.83072850       0.77148156       2.97922640
H        3.66890164       1.32525627       1.57956900
O        1.87915048      14.14402580      13.11600846
H        1.15477716      14.67895728      13.44060584
H        1.73513535      14.09296098      12.17108314
O        9.25519998      13.98999790      11.48485296
H        9.06624334      13.50824972      10.67959156
H        9.79845161      14.72577485      11.20246707
O       13.85762977       4.09326379       0.34438844
H       14.68627207       4.52032915       0.12713520
H       14.01737965       3.16336812       0.18312513
O       13.48149307       9.86723800      11.98229982
H       14.41648576       9.87006448      11.77733027
H       13.33821591      10.68382939      12.46071595
O       11.57576500       5.53354931       1.59470362
H       12.24795959       5.19963782       1.00065868
H       12.03176357       5.65892236       2.42691678
O       15.47198660       4.38403018       7.99716412
H       15.49639999       3.44662615       7.80504567
H       15.26549724       4.43240786       8.93057377
O       15.28591371      11.82007787       7.16750250
H       15.70994971      10.97734696       7.00554599
H       15.39722859      12.30574131       6.35020704
O        2.80802470      15.56942390      15.26872104
H        2.71189816      14.62792930      15.41217647
H        2.70344202      15.95652670      16.13788484
O       12.19041506      13.72759226      15.03799747
H       11.39134765      13.69950667      14.51175199
H       11.97429518      14.30273429      15.77198363
O       13.35514309       1.02515260      15.04172555
H       12.84778373       0.59720130      15.73141824
H       13.02708404       0.64074756      14.22880375
O       10.87934562      11.01600145       8.13920970
H       10.27468610      10.30196728       8.34113519
H       10.45954524      11.49025210       7.42151491
O        5.63653463      12.68827000       2.45901356
H        6.36236222      12.17185582       2.10869579
H        5.60146471      12.45457457       3.38658479
O        2.09217348      11.68533166       3.51160457
H        2.73482764      11.34765746       2.88774272
H        2.34677022      11.30063731       4.35030750
O        7.60236459       9.72535665      15.02056125
H        7.47017331       9.58525910      14.08294193
H        8.48074550       9.38603000      15.19242235
O        7.88263125       0.27191071       2.29574582
H        8.27553270       1.02148977       1.84854170
H        8.40270156      -0.47856282       2.00843382
O       12.28486120      10.31986095       0.11487196
H       12.28053026      10.59030842       1.03306107
H       11.36971160      10.38357112      -0.15839361
O        8.04744218      12.60823891       8.75044067
H        8.64924844      12.10407307       8.20282961
H        7.54074259      13.13259309       8.13032773
O       12.94317914       2.41200034      11.85940992
H       12.49957230       1.60117115      12.10840958
H       12.35493061       2.82251393      11.22563227
O       11.68762511       3.89378229      14.49797904
H       11.05918789       4.52582270      14.84701116
H       11.74064169       3.21275384      15.16851714
O        9.42967271       8.10220187      12.97671554
H        9.87149051       8.24917985      13.81303267
H        9.89428068       8.66531959      12.35762774
O        3.22193922       2.39439038       0.14364555
H        3.85448391       2.35754744      -0.57382337
H        2.97601412       3.31776630       0.19958840
O        9.77917646       4.85416570      12.81456361
H       10.70214468       4.60063466      12.82370319
H        9.64748593       5.31077127      13.64546722
O        2.63058169       5.04534761       0.28902283
H        2.44605393       5.93102190      -0.02364696
H        2.06632700       4.93877873       1.05485020
O        0.41275874       6.56071011       3.49375500
H        0.30580637       6.44706571       4.43814792
H        1.30998681       6.87773578       3.39027383
O       12.47676823      11.54259411       2.53695687
H       12.28519721      10.83246647       3.14953432
H       13.43124802      11.61439192       2.54368341
O       14.81113708       9.38111088      15.52920815
H       13.86364653       9.51137225      15.49015087
H       15.13061495       9.68687966      14.68028460
O       14.77934531       0.11030759       4.11889465
H       14.29006154       0.91692707       3.95703593
H       15.68701443       0.39657903       4.22095962
O        3.19573136      14.09960791       4.45185064
H        2.86778749      14.78926518       3.87473928
H        2.76826862      13.30206080       4.13971916
O       11.35160907       2.54590571       6.71289545
H       10.59033216       2.16990065       7.15483380
H       11.10659957       2.56557950       5.78779268
O       11.00410783       9.21809410      11.05938133
H       11.67066003       9.70166121      11.54733916
H       11.49959448       8.58805825      10.53614175
O        9.11968150       2.32545686       1.01095033
H       10.05967138       2.50611753       1.00740043
H        8.70939737       3.18941599       1.04933499
O        8.40064657      15.67132497       7.39505375
H        8.86523648      16.43395321       7.73970751
H        8.93701411      15.37583133       6.65937365
O        9.94301423       8.59768990       0.07570651
H       10.08774626       7.66196613      -0.06466982
H       10.15342165       8.73721636       0.99901194
O       11.83820004       2.41047332       1.04247796
H       11.75092164       3.26677572       1.46123866
H       12.61414709       2.02317153       1.44761416
O        2.06482399       4.21342869       4.40518233
H        1.60321584       5.00435507       4.12664109
H        1.66421881       3.50952161       3.89502337
O        4.83757864       7.25639906      10.59673689
H        4.29047186       7.66737962      11.26606565
H        4.34614704       7.36850353       9.78300511
O        0.49317169       7.64987808       9.45019398
H        1.43134796       7.65404268       9.26035250
H        0.43722226       7.42447812      10.37879311
O       12.73096133       7.68865441       9.61159111
H       13.21451140       8.44273583       9.27428946
H       13.28448428       7.34211354      10.31141509
O        5.20512846       3.25744206       3.97742798
H        5.41006460       2.90449347       4.84325724
H        4.31142089       3.59032071       4.05934515
O        7.70153874      15.72251588      14.99132847
H        8.40318877      15.13729851      15.27670491
H        8.15451929      16.45136687      14.56728047
O       13.48976921       6.30354376       3.36730201
H       14.44137751       6.22649590       3.29847530
H       13.30232437       7.20467009       3.10449483
O        0.48026473       2.57169546      10.35727721
H        1.01801750       3.36000567      10.28230525
H        0.32576877       2.29964908       9.45264822
O        1.38454902       6.07626063      13.12770330
H        0.91429047       6.06857948      13.96138773
H        0.88291993       6.67527168      12.57472424
O        2.38640563       0.26303455       8.23405575
H        2.48104903      -0.66377083       8.01426891
H        3.28439801       0.59053286       8.28491236
O        4.72209886       9.80256436       5.85547262
H        4.90879070      10.18036094       4.99602644
H        4.86054559      10.52349590       6.46973808
O        7.65806529       7.99037664       2.79994314
H        6.88587700       8.12143478       3.35019841
H        7.30788088       7.67957913       1.96507332
O        3.96539879       4.30212306      10.72907341
H        3.84384580       4.13501044      11.66370172
H        4.28338024       5.20392946      10.68588947
O        3.07077744       7.74233981       8.58659410
H        3.73842024       8.07200692       7.98509221
H        3.03782847       6.80103668       8.41602262
O        2.79255125      13.51361701       7.32518293
H        3.46350164      12.86233632       7.52985552
H        2.91328813      13.69798436       6.39369856
O        0.59404042       9.32868952      13.30495981
H        1.39908273       8.94934232      12.95249078
H        0.82517285      10.23478554      13.50940940
O       12.30536827       0.42421346       8.12246345
H       13.13228730       0.54698121       8.58868748
H       12.20360028       1.22019367       7.60064871
O        6.24290284      14.15940433       6.71930719
H        6.36061615      13.73278348       5.87056102
H        7.04337271      14.66904025       6.84481044
O        9.63030797      13.61846362       0.16844816
H        9.88902275      12.77983232      -0.21364613
H        8.82577268      13.42496182       0.64960494
O       15.02882642       7.12072295      11.80928999
H       15.20522462       7.98501399      12.18093028
H       14.60931721       6.63515154      12.51954647
O        4.49622916       0.26570950       5.83480325
H        4.14044420      -0.39352627       5.23893656
H        5.23489277      -0.16936636       6.26061647
O       11.90568695      15.59763747      13.08342426
H       11.35337490      15.58416399      12.30175829
H       11.28756956      15.63257428      13.81345313
O        9.36159557       1.76141109       4.33518886
H        8.97596980       1.22123873       3.64545092
H        9.72750010       1.13197855       4.95660690
O        2.92462302       4.84953202       7.91022632
H        3.34207359       4.67575803       8.75389062
H        2.00350744       4.62878873       8.04824926
O       13.54981979       8.68659950       2.05498152
H       13.88781497       9.57653048       2.15505124
H       12.60729432       8.77019001       2.19951597
O        0.11473163      14.40049443       9.80830141
H       -0.22382708      14.83748318      10.58974282
H        0.78998270      14.99202612       9.47609952
O       13.71430101       5.25716538      13.29171287
H       12.91837028       4.88241382      13.66892286
H       14.39507562       5.07676350      13.93996663
O        1.85891624       7.88749874      15.23407041
H        1.19426620       8.41788556      14.79456843
H        2.57957189       8.49517611      15.40024945
O        0.07030516       5.90207671      15.74084950
H       -0.63468144       6.31948432      15.24587817
H        0.60745117       6.62996384      16.05371741
O        0.37745408       9.43499278       4.37255533
H       -0.20764248      10.15357692       4.13269978
H        0.28714887       9.35884550       5.32243869
O        9.08889058      14.88677821       4.87011987
H        9.50242074      14.03149096       4.75303715
H        8.66587381      15.06579420       4.03033303
O        1.99089728       2.24923608      13.20910872
H        1.59651090       2.36429706      12.34455554
H        2.43372526       3.07976530      13.38333969
O        5.38499961       2.60848969      14.17319582
H        4.83322220       3.26512590      13.74822238
H        6.27452641       2.95195177      14.08948375
O       10.75793659       7.92730884       2.66525461
H       10.46977695       8.80644421       2.91084951
H        9.99022669       7.37408635       2.80947055
O        2.50214306      12.65454976       0.34919656
H        2.20522698      12.25690679      -0.46930985
H        3.10420196      12.01157502       0.72381692
O        9.96808856      10.48754006       3.22884667
H        9.67044399      10.82501843       4.07368269
H       10.39230897      11.23516771       2.80775074
391
Properties=species:S:1:pos:R:3 charge=0 spin=6 spin_multiplicity=6 metal=Dy geometry=droplet boundary=non-pbc droplet_radius=9.7526 pbc="F F F"
Dy       0.00000000       0.00000000       0.00000000
O        1.05419568      -0.95036466      -1.71999374
H        0.83643144      -1.74753245      -2.21637893
O       -2.14730108       0.55124217      -0.24110193
H       -2.78399390       0.86342928       0.41193518
O        2.04350538       0.89272613       0.00508051
H        2.80215429       0.70078621       0.56802536
O       -1.12953892      -2.05185443      -0.36184971
H       -1.75947613      -2.48357201       0.21523858
H       -1.05806318      -2.63460533      -1.11784207
O       -0.03219193       1.62767493      -1.72236408
H        0.41348750       1.59389101      -2.56880388
H       -0.49378754       2.46620643      -1.72748764
O        1.39585570      -1.65304844       0.96742840
H        1.28440244      -2.09434062       1.80949207
H        2.19744154      -2.02904891       0.60367625
O       -1.01006635      -0.52459221       2.07881432
H       -0.72390078      -0.25910313       2.95280325
H       -1.79562430      -1.04944777       2.23262325
O       -0.23412485       2.07722795       1.11678538
H        0.04603723       2.29997262       2.00454992
H       -0.63004186       2.88149682       0.78117677
O       -2.94433096       1.32935767       2.54773888
H       -2.84700949       2.25443252       2.32191396
H       -2.11849908       0.92809811       2.27713898
O       -2.44347056       6.59109228      -3.51138147
H       -2.26186181       5.93700910      -2.83652942
H       -1.71882935       7.21286865      -3.44414224
O        3.72359117       0.76769287      -2.13035351
H        3.13406986       0.72240171      -2.88311189
H        3.14247911       0.76210932      -1.36975543
O        0.30434754       0.54604580       4.28400279
H       -0.24166732       0.98121387       4.93877631
H        1.07934862       1.10285544       4.20938245
O        3.56612055      -2.60853263      -0.37949295
H        3.75855411      -1.68986253      -0.56723321
H        4.34674601      -3.08115101      -0.66843517
O        1.83979648       0.02264905      -4.13545902
H        1.20521255      -0.28971191      -4.78041305
H        1.47649865      -0.24612937      -3.29165531
O       -0.20055361      -3.34985218      -3.35228881
H        0.40456169      -3.69683911      -2.69679863
H       -0.96663107      -3.92117174      -3.29796456
O        1.80389767      -4.19076281      -1.71722171
H        1.21785024      -4.40161832      -0.99036532
H        2.47407387      -3.62785896      -1.32962017
O        2.56934845       2.72123285      -3.63189870
H        1.84495212       3.23633437      -3.98707785
H        3.12022206       2.52707680      -4.39023473
O       -2.34913130      -2.56864466       4.34334354
H       -2.42040463      -3.29166884       3.72013572
H       -1.41834298      -2.53264194       4.56372674
O       -5.20588736      -0.97554835       1.53134522
H       -4.56611661      -0.89673404       2.23895636
H       -5.18128298      -1.90084723       1.28752469
O        2.86033728      -4.47124842       1.57469862
H        2.86664919      -3.84442902       0.85131115
H        2.12626172      -5.05413605       1.38077359
O        2.85530855      -1.38794839       4.55070237
H        3.68616156      -0.97174898       4.78025226
H        2.21782732      -0.67401501       4.56289490
O        0.25086455      -2.22268299       5.08127412
H        1.16825872      -2.45777444       5.22038482
H        0.27021479      -1.28593517       4.88541465
O       -4.25817776       3.16042711      -2.47371465
H       -4.34628582       2.20870177      -2.52555751
H       -5.12794314       3.49428427      -2.69344044
O       -3.31204478      -4.58797459       0.35139706
H       -2.94044650      -4.20665221       1.14684649
H       -2.67571900      -4.38203924      -0.33337441
O        5.59816322       0.97599155       0.04731849
H        5.93560548       1.87116693       0.01529365
H        5.06343288       0.89270092      -0.74221174
O        0.53307311      -4.63382448       3.42913813
H        0.45808108      -3.87534225       4.00820008
H        0.37985508      -4.28227437       2.55211556
O        0.83239432       5.63104821      -0.41742809
H        0.03537061       5.12457977      -0.57387221
H        1.49461009       4.97515997      -0.19945395
O       -1.72336316       0.37216520      -3.89525914
H       -1.14278181      -0.30415125      -4.24419065
H       -1.26842110       0.70273395      -3.12067289
O        1.11235335       4.93380196       3.05130892
H        1.65247245       4.19406180       3.32931557
H        1.08185833       5.50929693       3.81557814
O       -0.31659566      -1.69739901      -5.69699965
H        0.41105803      -1.74873440      -6.31677108
H       -0.10272790      -2.34141244      -5.02191512
O        4.40358979      -1.55251831      -3.69613654
H        5.13722925      -0.94608993      -3.79737678
H        3.62650591      -0.99383372      -3.71175734
O        0.46653616      -5.91298524       1.02961287
H        1.08760428      -6.59004376       0.76110218
H       -0.38768651      -6.25032204       0.75991054
O       -2.67604696       4.70252901       2.82123750
H       -1.91679461       4.29264801       3.23568325
H       -3.41620873       4.44998233       3.37315466
O        0.42877151       3.94553078      -4.77976149
H       -0.27001381       3.40894581      -4.40558573
H        0.47138295       3.67796101      -5.69781515
O        5.40504489       1.73367669       2.74822848
H        5.44444082       0.90221425       3.22082770
H        5.38108558       1.48379543       1.82453094
O       -4.98090179      -3.73736778      -1.62089400
H       -4.15408949      -3.46609154      -1.22211778
H       -5.20562774      -4.55419733      -1.17533864
O       -4.48511686      -0.25358899      -2.73971453
H       -3.59050717      -0.05948632      -3.01940988
H       -4.96304934      -0.40836016      -3.55448952
O        6.03406103      -2.32459773       0.73070088
H        5.87791955      -1.40730220       0.50615557
H        6.20842028      -2.31496427       1.67183737
O        5.85513903       2.45031993      -2.28420366
H        5.70504606       3.03272753      -1.53955251
H        5.04196467       1.95220041      -2.36700608
O       -1.56806919       2.18571270      -6.29693406
H       -1.55939309       1.46636153      -5.66551466
H       -0.65364612       2.28278779      -6.56271351
O        4.02665624       0.77586327      -5.56679082
H        4.73532251       0.61826872      -4.94294156
H        3.23351254       0.51103315      -5.10093686
O       -3.29100186      -2.11073118      -5.76329754
H       -3.63036886      -1.63907974      -5.00263546
H       -2.34216450      -1.99447902      -5.71405381
O       -1.74886349       4.08673978      -1.00401817
H       -1.91446960       4.99232644      -0.74187460
H       -2.57452834       3.79368227      -1.38953948
O       -5.80268194      -3.67800773       1.25663774
H       -6.35306434      -3.90558445       0.50729143
H       -4.93351875      -4.00460203       1.02399350
O        0.35737215       1.33327134       6.88705183
H        1.14725510       1.13572700       6.38376962
H        0.00428670       0.47619074       7.12574694
O       -2.12254957       6.63946688       0.90043946
H       -2.37826299       5.88421144       1.42999749
H       -1.40780268       7.04549103       1.39086082
O       -3.27322861      -0.88002677       6.26508073
H       -2.44135150      -0.80560350       6.73270610
H       -3.05721534      -1.36084259       5.46608995
O       -6.26071262       2.08657613       2.71203780
H       -5.70071355       2.77166032       2.34694530
H       -6.55262717       1.58442357       1.95120895
O       -3.66804247      -4.42839118      -4.29999097
H       -4.09774562      -4.23124465      -3.46769277
H       -3.41467306      -3.57333507      -4.64771907
O        1.00397300      -6.22406948      -3.45542632
H        0.06443028      -6.31045052      -3.29408930
H        1.24071339      -5.38838260      -3.05316614
O        2.75975136       2.40998233       4.15050668
H        3.58387950       2.30832611       3.67436523
H        3.00595285       2.84688565       4.96581775
O        6.01402794      -3.97042429      -1.43476796
H        6.24479180      -3.44442042      -0.66906580
H        6.06556777      -4.87579139      -1.12835990
O        5.93162625       4.34476922      -0.06071591
H        5.47531215       5.10985613       0.28950017
H        6.48524807       4.04472067       0.66019017
O        1.82630074      -0.79940615      -7.11121456
H        2.54716754      -0.55212689      -7.69038282
H        1.21402570      -0.06548685      -7.16330646
O       -1.89341783      -7.14409362       0.46980043
H       -2.35651976      -6.31013855       0.39050735
H       -2.45535466      -7.77444624       0.01911826
O        3.85830430       5.88061684       2.51145918
H        2.96534254       5.57825263       2.67707025
H        4.11892853       5.43052480       1.70788964
O        3.14193709      -6.55718733      -1.80723253
H        2.70522516      -5.70609527      -1.77322019
H        4.07278086      -6.35305516      -1.71727830
O        3.40503841       5.65641129      -3.55883303
H        3.28246583       4.70747701      -3.53178603
H        2.71024147       5.97176147      -4.13679782
O       -0.63095071      -1.13482144       7.46162640
H       -0.25295640      -1.54660644       8.23866260
H       -0.28135757      -1.64051619       6.72794438
O       -4.88723416       3.92905550       4.41403719
H       -4.56110955       3.03461469       4.51328544
H       -4.56120118       4.39049317       5.18670116
O        5.71174401      -0.41221129       5.19480819
H        5.62334293      -1.32176785       5.47963087
H        5.48856379       0.10448654       5.96904703
O       -3.91381398      -6.29720869       2.78209848
H       -3.70741633      -5.79819991       1.99176812
H       -3.12426823      -6.80992371       2.95522462
O        2.68890210      -6.34657055       3.62604154
H        2.88135467      -6.77698926       2.79301478
H        1.90396666      -5.82711099       3.45205889
O       -3.72038196       2.47508008       6.39464604
H       -3.50896754       3.40440081       6.48352098
H       -4.58404094       2.38583529       6.79758571
O       -4.59600445       6.35069899      -0.19365105
H       -4.91577296       7.23171138      -0.38806579
H       -3.70455320       6.48455338       0.12826431
O        0.41481352       4.04686406       6.70952706
H        0.34473269       3.09286798       6.74434063
H        0.21967429       4.33453794       7.60137697
O       -1.62996119      -6.62550465      -4.00282075
H       -1.92661935      -6.53224530      -4.90809887
H       -1.43191230      -7.55737746      -3.90996852
O       -0.12636307       7.50799247       2.58168088
H        0.36198559       8.05439786       1.96589799
H        0.22111163       6.62618794       2.44783795
O        6.80714413      -0.35114189      -4.21709544
H        6.55840290       0.39583867      -3.67268780
H        7.67313207      -0.60366413      -3.89689354
O        3.36111397      -7.23879324       0.82283757
H        2.87602502      -8.04944648       0.97698644
H        3.26756390      -7.07798682      -0.11610946
O       -7.94733914       0.72880044       1.06573886
H       -7.48857767      -0.08750218       1.26428301
H       -8.60627444       0.80766375       1.75553354
O       -6.96006710      -0.20875444       4.16410075
H       -6.44721202      -0.18849269       4.97206174
H       -6.69624034       0.58132591       3.69250736
O        5.24415886      -4.90348389       3.85936597
H        4.39005097      -5.33326507       3.81442499
H        5.83389196      -5.57650643       4.19920030
O        0.61173528       3.35578114      -7.42931089
H        0.49624567       3.05580585      -8.33092545
H        1.54370484       3.22885393      -7.25167625
O       -5.48700757      -6.11327208      -0.23329444
H       -5.37222855      -6.65356519       0.54846061
H       -4.96328676      -6.54936731      -0.90543230
O       -7.69778948      -1.91358732       2.08959124
H       -7.37200462      -1.31542887       2.76212564
H       -6.94536464      -2.46436020       1.87340167
O       -1.29536716      -3.75954661       7.20130242
H       -2.24969131      -3.70954360       7.25604702
H       -1.11632986      -3.92275034       6.27526677
O        3.43445866       3.11129733      -6.82910989
H        4.17410524       3.67663679      -6.60652045
H        3.60853266       2.29364838      -6.36286931
O        5.92217797       5.14266097      -2.66526206
H        5.02952087       5.45602683      -2.81085390
H        5.97966686       5.01318923      -1.71860271
O        8.13327319       1.90365744      -0.28595333
H        7.56294012       2.05032472      -1.04056630
H        8.55975818       1.06599438      -0.46668240
O        2.66212893      -4.61752525      -6.43908825
H        1.86525470      -4.12026944      -6.62337052
H        2.35348224      -5.50311395      -6.24751135
O       -3.83897424       3.69955779      -6.45509167
H       -3.05494562       3.15164017      -6.41879781
H       -3.50615545       4.59669129      -6.43029322
O        4.21243954       0.60741182       7.22233255
H        3.72587636      -0.12549788       6.84506411
H        3.54525690       1.14249333       7.65220107
O        5.08503092      -4.26675370      -5.14828596
H        4.20745950      -4.50760471      -5.44508728
H        4.96585798      -3.42813115      -4.70248122
O       -3.92364645      -3.66405463       6.50742028
H       -3.44713300      -3.32357870       5.75029221
H       -4.35195738      -2.89650090       6.88642274
O       -4.94064805       6.20560962       2.92647263
H       -5.13392487       5.43317985       3.45772415
H       -4.80065381       5.86130101       2.04438135
O       -6.07748188      -3.98349669       4.32723325
H       -5.89654126      -3.81790324       3.40199213
H       -5.25162519      -3.79137839       4.77139889
O        7.81617158      -0.01863845       3.26226141
H        7.08897974      -0.24106836       3.84359505
H        7.40347945       0.42203954       2.51948288
O       -7.26105990      -3.22746461      -3.01349462
H       -7.34455047      -2.27505305      -2.96687491
H       -6.47443690      -3.42459303      -2.50497078
O        1.65646266       6.25308020      -5.55504670
H        1.94654478       6.00248404      -6.43213607
H        1.17890703       5.48871101      -5.23269255
O        2.84635322      -2.97694049       7.58032525
H        3.67597004      -3.12008544       7.12482850
H        2.74652185      -2.02524862       7.60373724
O        7.73354047       3.39853922       1.95099598
H        6.98010187       2.90956689       2.28185572
H        8.18968417       2.77964910       1.38078568
O        3.39470286       3.99106859       6.94407825
H        2.43768220       4.00579742       6.93283768
H        3.61960875       3.06348837       7.01649448
O       -4.24356214      -7.22905975      -2.37974811
H       -3.36050745      -7.24701969      -2.74869757
H       -4.79318236      -6.89539990      -3.08884652
O        0.34092539       6.99130096       5.21503297
H        0.15225982       7.23661532       4.30924160
H       -0.44985048       6.54058995       5.51128447
O       -2.68547812       7.00563929       4.52762717
H       -1.94385365       7.18990563       3.95119774
H       -3.39309678       6.75250304       3.93481211
O       -7.04450280       0.28704432      -5.25620902
H       -6.18116301       0.69330108      -5.17984347
H       -6.86110088      -0.62879085      -5.46559268
O       -8.28426905       2.22903474      -1.99452382
H       -8.18126897       1.79254276      -1.14888939
H       -7.49858424       1.98900826      -2.48576563
O        0.11025279      -8.53518972       2.28029013
H        0.97152889      -8.29432889       1.93908434
H       -0.50971196      -8.14362325       1.66502494
O        5.47318426      -3.36443739       6.09144819
H        5.39047069      -3.98638588       6.81433850
H        5.41144588      -3.90345795       5.30285638
O       -1.09300139       8.79849817      -0.39455644
H       -1.15669065       7.84473072      -0.44458808
H       -0.15274239       8.97727372      -0.40812680
O       -5.96922074      -0.82399926       6.62135605
H       -5.02169799      -0.88421780       6.49967530
H       -6.10090835      -0.97325597       7.55763200
O       -4.30162050       0.94281828      -7.81836304
H       -3.93365174       0.32399571      -7.18757824
H       -4.19044538       1.79978268      -7.40667876
O        5.99016010      -6.60034820       1.10373799
H        5.04635704      -6.67810739       0.96437827
H        6.17641277      -5.67072917       0.97201768
O        4.69995415       7.65764107      -0.32447815
H        5.49266356       8.11393081      -0.04226669
H        4.41707590       7.16798086       0.44782012
O       -2.60730720      -5.76586547      -6.42743627
H       -1.82615291      -5.22287271      -6.53321282
H       -3.14237332      -5.29474250      -5.78870375
O        1.34404768      -5.64787300       6.90498326
H        1.93614812      -6.37441967       7.09935109
H        1.83341610      -4.86515426       7.15816652
O       -0.95311521      -7.75484245       4.65909420
H       -0.44451674      -7.00138975       4.95887491
H       -0.56347548      -7.98740962       3.81628625
O        6.51512609       5.58567195       3.01415958
H        5.83546555       6.01501633       2.49458591
H        6.78520615       4.83613228       2.48361373
O       -7.10595709       5.61614887      -0.94129660
H       -6.18859253       5.81143163      -0.75014549
H       -7.49045099       5.41166764      -0.08889780
O        7.82598619      -4.60045038       0.93476383
H        8.53123939      -4.41726623       1.55548384
H        7.26579565      -3.82520619       0.97237817
O        5.45003969       4.92865791       5.42917997
H        5.35708342       5.75153280       5.90925067
H        5.85583995       5.17947588       4.59933159
O       -9.05382259      -1.26044070      -0.42322522
H       -9.09031949      -2.11841642      -0.84604608
H       -8.61786501      -1.42344334       0.41319750
O        4.30184105      -0.21854873      -8.08349849
H        4.30667272       0.19282590      -7.21921879
H        3.93938959       0.44958182      -8.66527366
O        3.06609109       6.50889213       5.69094297
H        2.13354758       6.72260574       5.66059579
H        3.09724804       5.62031121       6.04546383
O        7.57402760       2.25947326       4.73036264
H        6.81448721       2.42141384       4.17080436
H        7.94488288       1.44096043       4.40061281
O       -3.63373856       5.41320864       6.51844814
H       -3.29337153       5.97336451       5.82087555
H       -4.25218653       5.96916769       6.99243493
O       -6.49396437      -2.76070031      -5.93462528
H       -6.67083888      -2.83989544      -4.99724842
H       -5.63217663      -2.34681741      -5.98210881
O        2.20045796       2.30798807       8.71591884
H        1.64829489       2.63387935       9.42665272
H        1.58270708       1.96682316       8.06921783
O       -7.49396521       3.28995931       4.85552253
H       -7.40503834       2.73634868       4.07973961
H       -6.65530952       3.74655348       4.92193208
O       -2.19216960       2.74608222       8.85824965
H       -2.70308437       2.60891435       8.06051354
H       -2.28146793       1.92634873       9.34435112
O       -3.09307144      -0.85460727       8.98527736
H       -3.47798107      -1.72771506       9.06116681
H       -2.21210688      -1.00950079       8.64448227
O        1.49413578      -7.52926998      -5.79093433
H        1.37386694      -6.98836333      -5.01042985
H        1.05794970      -7.04218758      -6.49002251
O        0.73370617      -1.67273654      -9.44401336
H        0.76422791      -2.62445903      -9.54160723
H        1.08478196      -1.50988424      -8.56853820
O        1.75361451       9.47759357      -0.54256756
H        2.53770709       8.94039663      -0.42920918
H        2.05618405      10.37550174      -0.40675725
O        1.55455634      -8.97631004      -3.31794057
H        2.46168866      -9.01149160      -3.62142872
H        1.35377096      -8.04165890      -3.26952234
O       -4.07288947      -6.50605158       5.95013137
H       -3.92952162      -5.59791918       6.21653903
H       -4.03138191      -6.48508799       4.99406155
O        0.15197947       0.97448874      -9.67251887
H       -0.62375954       0.98888301     -10.23310216
H        0.38861297       0.04884977      -9.61396196
O       -3.70778511      -8.98730337      -0.37461989
H       -3.52662145      -9.84241283      -0.76474729
H       -3.90746214      -8.42091172      -1.11997982
O       -7.96892129       5.34781046       1.63478506
H       -7.10347097       5.53223535       1.99977142
H       -8.52703062       5.20750785       2.39967787
O        7.42060599       2.41155827      -5.85086506
H        7.24282359       1.59744655      -5.37985831
H        7.52023948       2.14347455      -6.76433982
391
Lattice="42.21791456655543 0.0 0.0 0.0 42.21791456655543 0.0 0.0 0.0 42.21791456655543" Properties=species:S:1:pos:R:3 charge=0 spin=6 spin_multiplicity=6 metal=Dy geometry=droplet boundary=pbc droplet_radius=9.7526 pbc="T T T"
Dy      21.37423794      20.84241283      21.51218200
O       22.42843362      19.89204817      19.79218826
H       22.21066937      19.09488038      19.29580308
O       19.22693686      21.39365500      21.27108008
H       18.59024404      21.70584212      21.92411718
O       23.41774332      21.73513896      21.51726251
H       24.17639222      21.54319904      22.08020736
O       20.24469902      18.79055840      21.15033230
H       19.61476181      18.35884082      21.72742058
H       20.31617476      18.20780750      20.39433994
O       21.34204601      22.47008776      19.78981793
H       21.78772543      22.43630384      18.94337812
H       20.88045040      23.30861926      19.78469436
O       22.77009364      19.18936439      22.47961041
H       22.65864038      18.74807221      23.32167408
H       23.57167948      18.81336392      22.11585826
O       20.36417159      20.31782062      23.59099633
H       20.65033716      20.58330971      24.46498526
H       19.57861364      19.79296506      23.74480526
O       21.14011309      22.91964078      22.62896739
H       21.42027516      23.14238545      23.51673192
H       20.74419608      23.72390965      22.29335877
O       18.42990697      22.17177050      24.05992088
H       18.52722844      23.09684535      23.83409597
H       19.25573886      21.77051094      23.78932099
O       18.93076738      27.43350511      18.00080054
H       19.11237613      26.77942193      18.67565258
H       19.65540859      28.05528148      18.06803976
O       25.09782910      21.61010570      19.38182850
H       24.50830780      21.56481454      18.62907012
H       24.51671705      21.60452215      20.14242658
O       21.67858548      21.38845863      25.79618479
H       21.13257062      21.82362670      26.45095832
H       22.45358656      21.94526827      25.72156445
O       24.94035849      18.23388020      21.13268905
H       25.13279205      19.15255030      20.94494879
H       25.72098394      17.76126182      20.84374683
O       23.21403441      20.86506188      17.37672299
H       22.57945048      20.55270092      16.73176896
H       22.85073659      20.59628346      18.22052669
O       21.17368432      17.49256065      18.15989319
H       21.77879963      17.14557372      18.81538337
H       20.40760686      16.92124109      18.21421745
O       23.17813561      16.65165002      19.79496029
H       22.59208818      16.44079451      20.52181668
H       23.84831180      17.21455387      20.18256183
O       23.94358638      23.56364568      17.88028330
H       23.21919006      24.07874721      17.52510415
H       24.49446000      23.36948963      17.12194727
O       19.02510664      18.27376818      25.85552555
H       18.95383331      17.55074399      25.23231773
H       19.95589496      18.30977089      26.07590875
O       16.16835058      19.86686448      23.04352722
H       16.80812133      19.94567880      23.75113837
H       16.19295495      18.94156560      22.79970670
O       24.23457522      16.37116441      23.08688063
H       24.24088712      16.99798381      22.36349316
H       23.50049965      15.78827678      22.89295560
O       24.22954648      19.45446444      26.06288437
H       25.06039950      19.87066385      26.29243426
H       23.59206526      20.16839782      26.07507690
O       21.62510249      18.61972985      26.59345613
H       22.54249665      18.38463839      26.73256682
H       21.64445273      19.55647767      26.39759666
O       17.11606018      24.00283995      19.03846736
H       17.02795211      23.05111460      18.98662450
H       16.24629480      24.33669710      18.81874156
O       18.06219316      16.25443824      21.86357907
H       18.43379144      16.63576063      22.65902850
H       18.69851894      16.46037359      21.17880759
O       26.97240116      21.81840438      21.55950049
H       27.30984342      22.71357977      21.52747565
H       26.43767082      21.73511375      20.76997027
O       21.90731105      16.20858835      24.94132014
H       21.83231902      16.96707058      25.52038209
H       21.75409301      16.56013846      24.06429756
O       22.20663226      26.47346104      21.09475392
H       21.40960854      25.96699261      20.93830980
H       22.86884803      25.81757280      21.31272805
O       19.65087477      21.21457804      17.61692286
H       20.23145612      20.53826158      17.26799136
H       20.10581684      21.54514679      18.39150912
O       22.48659129      25.77621479      24.56349093
H       23.02671039      25.03647463      24.84149758
H       22.45609627      26.35170976      25.32776014
O       21.05764227      19.14501382      15.81518235
H       21.78529597      19.09367843      15.19541093
H       21.27151004      18.50100039      16.49026689
O       25.77782772      19.28989452      17.81604547
H       26.51146719      19.89632290      17.71480522
H       25.00074384      19.84857911      17.80042466
O       21.84077410      14.92942759      22.54179487
H       22.46184222      14.25236907      22.27328418
H       20.98655142      14.59209080      22.27209254
O       18.69819098      25.54494184      24.33341950
H       19.45744333      25.13506084      24.74786526
H       17.95802920      25.29239516      24.88533667
O       21.80300945      24.78794361      16.73242052
H       21.10422413      24.25135865      17.10659627
H       21.84562088      24.52037384      15.81436686
O       26.77928283      22.57608952      24.26041049
H       26.81867875      21.74462708      24.73300970
H       26.75532351      22.32620827      23.33671294
O       16.39333615      17.10504505      19.89128801
H       17.22014844      17.37632130      20.29006423
H       16.16861020      16.28821550      20.33684336
O       16.88912107      20.58882384      18.77246747
H       17.78373077      20.78292651      18.49277213
H       16.41118860      20.43405267      17.95769249
O       27.40829897      18.51781510      22.24288288
H       27.25215749      19.43511063      22.01833758
H       27.58265821      18.52744857      23.18401937
O       27.22937697      23.29273276      19.22797835
H       27.07928400      23.87514036      19.97262949
H       26.41620261      22.79461324      19.14517592
O       19.80616875      23.02812553      15.21524794
H       19.81484484      22.30877436      15.84666734
H       20.72059182      23.12520062      14.94946850
O       25.40089417      21.61827610      15.94539118
H       26.10956045      21.46068155      16.56924045
H       24.60775047      21.35344598      16.41124515
O       18.08323608      18.73168166      15.74888447
H       17.74386908      19.20333309      16.50954655
H       19.03207344      18.84793382      15.79812819
O       19.62537445      24.92915261      20.50816384
H       19.45976833      25.83473927      20.77030740
H       18.79970959      24.63609510      20.12264252
O       15.57155599      17.16440510      22.76881975
H       15.02117359      16.93682839      22.01947344
H       16.44071919      16.83781080      22.53617550
O       21.73161008      22.17568417      28.39923384
H       22.52149304      21.97813983      27.89595162
H       21.37852463      21.31860358      28.63792894
O       19.25168837      27.48187971      22.41262147
H       18.99597495      26.72662427      22.94217950
H       19.96643526      27.88790386      22.90304282
O       18.10100933      19.96238606      27.77726273
H       18.93288644      20.03680934      28.24488811
H       18.31702260      19.48157025      26.97827196
O       15.11352531      22.92898896      24.22421980
H       15.67352439      23.61407315      23.85912730
H       14.82161076      22.42683640      23.46339095
O       17.70619547      16.41402165      17.21219104
H       17.27649232      16.61116818      18.04448923
H       17.95956488      17.26907776      16.86446294
O       22.37821094      14.61834335      18.05675569
H       21.43866822      14.53196231      18.21809270
H       22.61495133      15.45403024      18.45901587
O       24.13398930      23.25239516      25.66268868
H       24.95811743      23.15073895      25.18654724
H       24.38019079      23.68929848      26.47799976
O       27.38826588      16.87198854      20.07741404
H       27.61902974      17.39799241      20.84311621
H       27.43980571      15.96662144      20.38382210
O       27.30586418      25.18718205      21.45146609
H       26.84955009      25.95226896      21.80168218
H       27.85948601      24.88713350      22.17237218
O       23.20053868      20.04300668      14.40096744
H       23.92140547      20.29028594      13.82179918
H       22.58826363      20.77692598      14.34887555
O       19.48082011      13.69831922      21.98198244
H       19.01771817      14.53227428      21.90268936
H       18.91888328      13.06796659      21.53130027
O       25.23254224      26.72302967      24.02364119
H       24.33958048      26.42066546      24.18925225
H       25.49316647      26.27293763      23.22007165
O       24.51617502      14.28522550      19.70494948
H       24.07946310      15.13631756      19.73896181
H       25.44701880      14.48935767      19.79490370
O       24.77927635      26.49882412      17.95334898
H       24.65670377      25.54988985      17.98039598
H       24.08447941      26.81417431      17.37538418
O       20.74328723      19.70759139      28.97380840
H       21.12128153      19.29580639      29.75084460
H       21.09288037      19.20189665      28.24012639
O       16.48700378      24.77146833      25.92621919
H       16.81312839      23.87702752      26.02546745
H       16.81303676      25.23290600      26.69888316
O       27.08598195      20.43020154      26.70699020
H       26.99758087      19.52064498      26.99181287
H       26.86280173      20.94689937      27.48122904
O       17.46042396      14.54520414      24.29428049
H       17.66682161      15.04421293      23.50395013
H       18.24996970      14.03248912      24.46740663
O       24.06314004      14.49584228      25.13822355
H       24.25559261      14.06542357      24.30519679
H       23.27820460      15.01530184      24.96424089
O       17.65385598      23.31749291      27.90682804
H       17.86527040      24.24681365      27.99570298
H       16.79019700      23.22824812      28.30976771
O       16.77823349      27.19311182      21.31853095
H       16.45846497      28.07412422      21.12411621
H       17.66968474      27.32696621      21.64044632
O       21.78905145      24.88927689      28.22170907
H       21.71897063      23.93528081      28.25652263
H       21.59391223      25.17695077      29.11355898
O       19.74427675      14.21690818      17.50936125
H       19.44761859      14.31016753      16.60408314
H       19.94232563      13.28503537      17.60221348
O       21.24787486      28.35040531      24.09386289
H       21.73622353      28.89681070      23.47807999
H       21.59534957      27.46860077      23.96001995
O       28.18138207      20.49127095      17.29508656
H       27.93264083      21.23825151      17.83949420
H       29.04737000      20.23874870      17.61528846
O       24.73535191      13.60361959      22.33501957
H       24.25026296      12.79296635      22.48916844
H       24.64180184      13.76442601      21.39607254
O       13.42689880      21.57121327      22.57792087
H       13.88566027      20.75491065      22.77646502
H       12.76796350      21.65007658      23.26771554
O       14.41417084      20.63365840      25.67628275
H       14.92702592      20.65392015      26.48424374
H       14.67799760      21.42373874      25.20468936
O       26.61839680      15.93892895      25.37154797
H       25.76428891      15.50914776      25.32660699
H       27.20812989      15.26590640      25.71138230
O       21.98597321      24.19819397      14.08287112
H       21.87048360      23.89821868      13.18125656
H       22.91794277      24.07126676      14.26050576
O       15.88723037      14.72914075      21.27888756
H       16.00200938      14.18884764      22.06064262
H       16.41095118      14.29304552      20.60674971
O       13.67644846      18.92882551      23.60177324
H       14.00223331      19.52698397      24.27430765
H       14.42887330      18.37805263      23.38558367
O       20.07887077      17.08286622      28.71348443
H       19.12454663      17.13286923      28.76822903
H       20.25790808      16.91966249      27.78744878
O       24.80869659      23.95371016      14.68307212
H       25.54834318      24.51904963      14.90566155
H       24.98277059      23.13606121      15.14931270
O       27.29641591      25.98507380      18.84691994
H       26.40375881      26.29843966      18.70132811
H       27.35390479      25.85560206      19.79357930
O       29.50751113      22.74607027      21.22622867
H       28.93717806      22.89273755      20.47161570
H       29.93399612      21.90840721      21.04549960
O       24.03636687      16.22488758      15.07309376
H       23.23949264      16.72214339      14.88881148
H       23.72772018      15.33929888      15.26467066
O       17.53526370      24.54197062      15.05709033
H       18.31929232      23.99405300      15.09338420
H       17.86808249      25.43910412      15.08188878
O       25.58667748      21.44982466      28.73451455
H       25.10011430      20.71691495      28.35724611
H       24.91949484      21.98490616      29.16438308
O       26.45926886      16.57565913      16.36389605
H       25.58169743      16.33480812      16.06709472
H       26.34009592      17.41428168      16.80970078
O       17.45059149      17.17835821      28.01960228
H       17.92710494      17.51883413      27.26247421
H       17.02228055      17.94591193      28.39860475
O       16.43358988      27.04802245      24.43865463
H       16.24031307      26.27559269      24.96990615
H       16.57358413      26.70371384      23.55656335
O       15.29675605      16.85891614      25.83941526
H       15.47769668      17.02450959      24.91417413
H       16.12261275      17.05103444      26.28358090
O       29.19040952      20.82377438      24.77444341
H       28.46321768      20.60134447      25.35577705
H       28.77771739      21.26445238      24.03166488
O       14.11317804      17.61494823      18.49868739
H       14.02968747      18.56735978      18.54530710
H       14.89980103      17.41781980      19.00721122
O       23.03070060      27.09549304      15.95713530
H       23.32078272      26.84489687      15.08004593
H       22.55314496      26.33112384      16.27948945
O       24.22059115      17.86547235      29.09250725
H       25.05020798      17.72232739      28.63701050
H       24.12075979      18.81716422      29.11591925
O       29.10777841      24.24095205      23.46317798
H       28.35433981      23.75197972      23.79403773
H       29.56392211      23.62206193      22.89296769
O       24.76894080      24.83348143      28.45626026
H       23.81192013      24.84821026      28.44501968
H       24.99384669      23.90590120      28.52867648
O       17.13067580      13.61335308      19.13243389
H       18.01373049      13.59539314      18.76348444
H       16.58105558      13.94701294      18.42333548
O       21.71516332      27.83371379      26.72721497
H       21.52649775      28.07902815      25.82142360
H       20.92438745      27.38300278      27.02346647
O       18.68875982      27.84805213      26.03980918
H       19.43038429      28.03231846      25.46337974
H       17.98114115      27.59491587      25.44699411
O       14.32973514      21.12945715      16.25597298
H       15.19307492      21.53571391      16.33233853
H       14.51313706      20.21362198      16.04658932
O       13.08996889      23.07144757      19.51765819
H       13.19296897      22.63495559      20.36329261
H       13.87565370      22.83142109      19.02641638
O       21.48449073      12.30722311      23.79247213
H       22.34576683      12.54808394      23.45126635
H       20.86452598      12.69878958      23.17720695
O       26.84742219      17.47797544      27.60363020
H       26.76470863      16.85602695      28.32652050
H       26.78568381      16.93895488      26.81503838
O       20.28123655      29.64091100      21.11762556
H       20.21754729      28.68714355      21.06759393
H       21.22149555      29.81968655      21.10405521
O       15.40501720      20.01841357      28.13353806
H       16.35253995      19.95819503      28.01185730
H       15.27332958      19.86915686      29.06981401
O       17.07261744      21.78523111      13.69381896
H       17.44058620      21.16640854      14.32460376
H       17.18379256      22.64219551      14.10550324
O       27.36439804      14.24206463      22.61592000
H       26.42059498      14.16430544      22.47656027
H       27.55065071      15.17168366      22.48419969
O       26.07419208      28.50005390      21.18770385
H       26.86690150      28.95634364      21.46991531
H       25.79131384      28.01039369      21.96000212
O       18.76693074      15.07654736      15.08474573
H       19.54808503      15.61954012      14.97896919
H       18.23186462      15.54767033      15.72347826
O       22.71828562      15.19453983      28.41716527
H       23.31038606      14.46799316      28.61153310
H       23.20765403      15.97725857      28.67034852
O       20.42112273      13.08757038      26.17127620
H       20.92972120      13.84102308      26.47105691
H       20.81076246      12.85500321      25.32846825
O       27.88936402      26.42808478      24.52634158
H       27.20970348      26.85742916      24.00676792
H       28.15944408      25.67854512      23.99579573
O       14.26828084      26.45856170      20.57088541
H       15.18564540      26.65384446      20.76203652
H       13.88378695      26.25408047      21.42328420
O       29.20022413      16.24196245      22.44694583
H       29.90547733      16.42514660      23.06766584
H       28.64003359      17.01720665      22.48456017
O       26.82427763      25.77107074      26.94136198
H       26.73132136      26.59394563      27.42143267
H       27.23007789      26.02188871      26.11151360
O       12.32041534      19.58197213      21.08895678
H       12.28391845      18.72399641      20.66613592
H       12.75637292      19.41896949      21.92537950
O       25.67607898      20.62386410      13.42868351
H       25.68091065      21.03523873      14.29296322
H       25.31362752      21.29199465      12.84690835
O       24.44032902      27.35130496      27.20312498
H       23.50778552      27.56501857      27.17277780
H       24.47148598      26.46272404      27.55764583
O       28.94826554      23.10188609      26.24254465
H       28.18872514      23.26382667      25.68298636
H       29.31912082      22.28337326      25.91279481
O       17.74049938      26.25562147      28.03063015
H       18.08086641      26.81577734      27.33305755
H       17.12205141      26.81158053      28.50461693
O       14.88027357      18.08171252      15.57755673
H       14.70339906      18.00251739      16.51493359
H       15.74206131      18.49559542      15.53007320
O       23.57469590      23.15040090      30.22810084
H       23.02253283      23.47629218      30.93883473
H       22.95694502      22.80923599      29.58139984
O       13.88027273      24.13237214      26.36770453
H       13.96919960      23.57876151      25.59192162
H       14.71892842      24.58896631      26.43411408
O       19.18206834      23.58849505      30.37043166
H       18.67115356      23.45132718      29.57269554
H       19.09277000      22.76876156      30.85653313
O       18.28116650      19.98780556      30.49745936
H       17.89625687      19.11469777      30.57334881
H       19.16213105      19.83291204      30.15666428
O       22.86837371      13.31314285      15.72124768
H       22.74810488      13.85404950      16.50175216
H       22.43218764      13.80022525      15.02215950
O       22.10794411      19.16967629      12.06816864
H       22.13846585      18.21795380      11.97057478
H       22.45901990      19.33252859      12.94364380
O       23.12785245      30.32000640      20.96961445
H       23.91194502      29.78280946      21.08297282
H       23.43042199      31.21791457      21.10542475
O       22.92879428      11.86610279      18.19424143
H       23.83592660      11.83092123      17.89075328
H       22.72800889      12.80075393      18.24265966
O       17.30134846      14.33636125      27.46231337
H       17.44471632      15.24449365      27.72872103
H       17.34285603      14.35732485      26.50624356
O       21.52621741      21.81690158      11.83966313
H       20.75047840      21.83129584      11.27907984
H       21.76285091      20.89126260      11.89822005
O       17.66645283      11.85510946      21.13756211
H       17.84761649      11.00000000      20.74743472
H       17.46677579      12.42150111      20.39220219
O       13.40531665      26.19022330      23.14696707
H       14.27076697      26.37464818      23.51195342
H       12.84720732      26.04992068      23.91185987
O       28.79484393      23.25397111      15.66131694
H       28.61706153      22.43985938      16.13232369
H       28.89447741      22.98588739      14.74784219
391
Lattice="15.781866235591567 0.0 0.0 0.0 15.781866235591567 0.0 0.0 0.0 15.781866235591567" Properties=species:S:1:pos:R:3 charge=0 spin=4 spin_multiplicity=4 metal=Er geometry=box boundary=pbc pbc="T T T"
Er       7.89093312       7.89093312       7.89093312
O        6.79511736       6.08805267       8.51447936
H        7.07156344       5.36070845       9.08355225
O        8.82104603       7.91708626       5.89739205
H        9.51764522       7.36030641       5.53127489
O        8.38206248       7.62829366      10.01926873
H        9.16176653       7.23957577      10.43188963
O        6.11124829       7.70467313       6.38307731
H        5.19478838       7.94090175       6.52635714
H        6.13652376       7.37517405       5.48473253
O        9.49437037       6.18740133       7.94161261
H        9.34545887       5.24460555       8.01367730
H       10.44620963       6.27714661       7.89492588
O        6.02108760       8.68445341       9.05265739
H        5.44686500       9.41147168       8.81194038
H        5.65897743       8.35479367       9.87511256
O        7.54479764      10.06007778       7.08433429
H        7.93076203      10.46484009       6.30752620
H        6.98550449      10.74152351       7.45723472
O        9.93702621       8.98720460       8.18638516
H       10.42203753       9.11272915       9.00200728
H       10.47660435       9.41064247       7.51871186
O        0.53657371      14.36857931       7.10734694
H        0.28223510      14.99454918       6.42933113
H        0.80299286      14.91261031       7.84848320
O       12.11635794      13.75844068       1.83661145
H       11.65774525      12.92724711       1.71404110
H       12.87751916      13.53579692       2.37261070
O       11.21977106       6.27157386      11.00503553
H       11.23693019       5.33447064      11.19939333
H       12.14085278       6.53191239      10.99702636
O        7.68386080      12.95345170       6.08669589
H        7.35236788      13.76995570       6.46041436
H        7.28325912      12.90679849       5.21860971
O       14.37709073      13.87759425       0.32886584
H       13.73675340      14.42882099      -0.12096638
H       14.40267313      14.21978694       1.22244379
O       14.85373048       9.96083745       4.11383770
H       14.26117461       9.90233399       4.86329531
H       14.50418369       9.33256597       3.48191695
O       10.44638571      14.48812187      10.44695371
H       10.37273982      14.16953327       9.54733745
H        9.62044604      14.94417831      10.60840969
O        6.64332892       5.79801695       4.51761431
H        6.36452285       5.44557478       5.36276727
H        7.17400639       5.10175934       4.13052439
O        0.53175833      11.31259918      13.66767902
H        0.03877676      12.00157873      13.22213644
H       -0.12808806      10.66174989      13.90690648
O        1.44811133      10.91929091       1.67088350
H        0.52558366      10.92551088       1.41566624
H        1.91213919      10.62657656       0.88651861
O       13.86001032       7.16003274      11.60803379
H       14.02422190       7.79893917      12.30162227
H       14.03542016       7.63637619      10.79651660
O        3.46474710      15.50894101      12.18617942
H        3.12760329      14.87269828      12.81686245
H        3.85628251      14.97630327      11.49391581
O        4.37690696      14.03403593       0.08263252
H        4.26871369      13.08299998       0.07510336
H        5.25609961      14.17277063       0.43477567
O        2.10174835       5.53253074       6.05199766
H        1.77928858       5.72337193       5.17118487
H        2.62400250       6.29928471       6.28773225
O        9.15213969      10.34895778       4.72488284
H        9.56627576       9.84066595       5.42227985
H        8.45475822       9.78166097       4.39615004
O       13.83182805       9.43629098      13.46033004
H       13.17897934       9.48419567      12.76195654
H       13.37910310       9.00087144      14.18260547
O        0.27580792       1.14574273       2.00576899
H       -0.20721457       0.39685145       2.35517273
H       -0.27058397       1.90301532       2.21606870
O        1.51691220       6.15925248       3.41252608
H        0.59616227       5.90357257       3.35703562
H        2.00099635       5.34893457       3.25353156
O       11.77678792       4.71459659       8.08238305
H       12.35468619       5.25896934       8.61710143
H       12.33281061       3.99441725       7.78504094
O        7.62660644       5.16165631      12.31663358
H        6.79052371       5.61742535      12.41395831
H        8.28028612       5.86065867      12.29845631
O       14.65172943       5.69826381       0.37918402
H       14.52158764       6.32460394       1.09121842
H       13.79351083       5.62851375      -0.03893989
O        5.02468034      15.63110620       9.96130095
H        4.60296687      16.38082251      10.38119980
H        5.83346375      15.50215050      10.45675192
O        2.11173261       3.31425838      11.16845689
H        2.15276084       4.01490744      10.51758100
H        1.87072747       3.75661282      11.98238006
O        2.22694324       0.19024935      15.72855206
H        1.58049033       0.37547723      16.40974301
H        2.15480125       0.92753183      15.12238219
O       15.38983830      11.19623210       8.27839122
H       14.99208579      11.89521009       8.79748134
H       15.39709060      11.53620166       7.38362871
O       11.20099316       0.82377024       4.07946645
H       11.53351694       1.10127839       3.22585705
H       10.55693562       0.14519692       3.87708077
O       11.29880133       3.48472296       4.63459674
H       11.21697569       2.54183203       4.49144268
H       11.96286198       3.76626368       4.00531929
O        7.01923690       8.76196889      13.24060014
H        6.58251117       8.61168124      12.40219922
H        6.36847997       8.51529721      13.89779140
O        4.21101630       4.27706700      14.46659887
H        3.53650344       3.63395865      14.24825078
H        4.50145984       4.61699249      13.62023899
O       12.53352232      14.40607232       5.99505123
H       12.27886553      15.19143174       6.47939857
H       11.70439246      14.01103683       5.72538016
O       15.06043232       3.16639042      15.25498324
H       14.95278743       4.05667433      15.58970550
H       14.65474276       2.60949265      15.91944745
O        7.86857021       8.90174758       1.40688396
H        7.57981664       8.65332102       2.28502829
H        8.79044558       8.64595920       1.37606262
O        3.56591045       1.75314586       7.76900599
H        3.58912918       2.63649256       8.13696161
H        3.98171061       1.20496764       8.43447028
O        5.16323919       0.39068193       5.10790173
H        4.60940221      -0.38096043       5.22649558
H        4.57283614       1.05853347       4.75914622
O        4.63641325       7.55788639      15.50490384
H        4.88002628       6.79974123      16.03603513
H        4.89682473       8.31354217      16.03159355
O        5.42893970       5.44642742       1.24357781
H        5.18309572       4.90540905       0.49318345
H        6.34443258       5.22270611       1.41106931
O        3.29635465       2.14077284       4.14895916
H        2.75102831       1.54070550       3.64026455
H        3.29674358       2.95282669       3.64220455
O        8.30213204       5.10982590      14.95325644
H        7.51877800       4.73948733      15.35999668
H        8.20767609       4.90760171      14.02244213
O       10.15272525       6.47308076      13.49886960
H       10.54769408       6.45993731      12.62705614
H       10.72774779       7.03864794      14.01434481
O        9.74978723      14.69913421       2.79200359
H       10.33009426      14.30639379       2.13990655
H        9.77009080      14.08938171       3.52958172
O       10.65748626      14.20944081      15.36754121
H       10.87822872      13.34794831      15.72156844
H        9.70113553      14.21461168      15.32756156
O        1.22728530       4.81388593      13.35813526
H        0.57142810       4.30463975      13.83431959
H        1.64820327       5.35073735      14.02958924
O       14.84178853      14.78398126       3.15682376
H       15.56400081      14.23164727       3.45610360
H       14.61559116      15.31708099       3.91897286
O        4.14337698       6.67290489       3.89857357
H        3.91532723       6.96340400       4.78165648
H        4.97748355       6.21540071       4.00434687
O        6.65523196       3.74068949       9.88149003
H        5.74428272       3.55968177      10.11309211
H        7.02350716       4.15491412      10.66188940
O        1.43366138       7.90450878      12.96981218
H        0.72759740       8.49929360      13.22266888
H        1.51790329       7.30358260      13.71009784
O        7.46773352       0.26880145       3.39536418
H        7.29159065      -0.43353973       2.76932713
H        6.66786313       0.33112648       3.91743198
O        4.71719984       0.55066281       1.49667805
H        4.67999888      -0.16427953       2.13205620
H        3.94118998       0.42666447       0.95017558
O        9.39451591      13.57695083       8.10988653
H        8.92339570      13.14075019       7.39995232
H        9.68176591      14.40820940       7.73209231
O        3.91146217       5.56293037      12.08852767
H        3.63484952       6.33247196      11.59101082
H        3.50929530       4.82432757      11.63140672
O        0.17699928       5.28368774      10.87279823
H       -0.55174382       5.87616711      11.05755084
H        0.60689592       5.16081668      11.71915714
O        7.16075274      11.52466176      15.65440789
H        7.58485743      10.74069936      16.00336349
H        7.29186308      12.18951822      16.33043142
O       11.81699075       3.62002694      10.90002328
H       11.78273616       3.92415032       9.99306824
H       11.22299632       2.86981424      10.92417615
O       15.13862565       8.54260271      15.76438898
H       15.10823462       7.61598092      15.52631277
H       15.93419455       8.87186376      15.34619153
O        7.70953355      15.17632151      10.19635791
H        7.99533211      16.05145495       9.93426538
H        7.31976275      14.80419526       9.40526208
O        5.81935098       2.10620733      13.10062176
H        5.15631480       1.50105699      12.76834489
H        5.31768323       2.80439638      13.52144638
O       10.21230085       0.38900988       8.14711162
H       10.40731109       0.27397442       9.07714908
H       10.55907359       1.25550324       7.93457982
O        3.30493022       4.31732039       2.51326329
H        2.76972995       4.22278840       1.72531899
H        4.14126475       4.65795931       2.19586524
O       14.10143365       0.68552816       5.16379675
H       13.21686082       0.49578436       4.85113072
H       14.27086825       0.01531537       5.82586817
O       13.79871423       7.99319117       2.29383476
H       14.28618725       8.26812375       1.51729502
H       13.11252139       7.41808088       1.95527992
O       10.00134033       4.46385276       1.21084080
H        9.63662397       5.04306705       1.87996307
H        9.48280659       4.64607025       0.42716269
O       14.91934326       1.77623978      10.36775505
H       15.63683524       1.15030484      10.26955853
H       14.61011078       1.64808735      11.26451815
O        6.94625858       8.57360361       3.94461158
H        6.11684926       8.19258973       3.65627075
H        7.51445140       7.81975238       4.10303216
O        0.49646574       2.14946343      13.02117562
H        1.44417902       2.15622961      13.15543507
H        0.15149430       1.66286362      13.76980581
O       12.69269718       0.23199203      10.60384384
H       13.39246565      -0.24961186      10.16269349
H       11.90526158      -0.28796025      10.44313717
O       13.96794903       4.29305380      12.43909831
H       13.27532284       4.10346915      11.80620143
H       13.53176903       4.79159962      13.13006207
O        1.75480455       9.71185374       7.51279100
H        0.98339854      10.16505917       7.85304010
H        1.62375369       9.69365219       6.56477928
O        7.46055740       2.03116962       0.69963701
H        7.93301961       1.57013345       0.00648700
H        6.66967847       1.51015535       0.83851284
O        0.14875360       3.39261119       8.42789312
H        0.27042088       2.97400061       7.57572289
H       -0.39291940       2.77747696       8.92229384
O        2.06646710      12.99295151      10.51799325
H        1.71672019      12.17050809      10.86076980
H        2.79270719      12.72814409       9.95347203
O       12.38576708       5.12100604      14.49082808
H       11.58010835       5.27227547      13.99659797
H       12.19447816       4.35589369      15.03327022
O       14.28454351      12.97312377      12.94388049
H       13.69908861      13.25639601      13.64618473
H       14.89829165      13.69960642      12.83540006
O        9.47054636      11.76232397      12.46182401
H        9.89146338      10.96360602      12.77980254
H        9.41287628      11.64217756      11.51394699
O        2.39026200      13.81159871      14.02000305
H        1.84366354      13.17806979      14.48487193
H        2.43477021      14.56644885      14.60690349
O        3.72771975      11.34637625       8.42620396
H        4.41064641      11.33721188       7.75556319
H        3.04843376      10.76469683       8.08495415
O        2.40299141       7.20185330      10.52746313
H        2.68572497       7.19476870       9.61299969
H        1.71706884       6.53568484      10.57175355
O       14.11871216      10.82842840       1.11463863
H       14.26510397      10.60695260       2.03428516
H       14.53618242      10.11815104       0.62734355
O        1.87898294      14.01471681       1.80300282
H        2.67181391      14.06130303       1.26869896
H        1.65444328      13.08435696       1.81863402
O       13.02783729      12.02566023       7.21476347
H       13.73497642      12.06230170       6.57068001
H       12.53027887      12.83063437       7.07094385
O       11.00854163       0.87847575      12.63955088
H       10.80016924       1.80573570      12.75357620
H       11.74234251       0.87121393      12.02496534
O       14.18527783       8.93199640       9.34804953
H       14.55225107       9.77914936       9.09527622
H       13.69516496       8.64342097       8.57814991
O       10.79054637       9.69933617       2.65316487
H       10.09202308      10.04962421       3.20597167
H       11.53148552       9.58262152       3.24782334
O        8.17655552       3.68194564       3.59095442
H        8.71004906       3.59339758       2.80115968
H        7.79457452       2.81396854       3.72110095
O        7.39243014      13.89939016       1.69578836
H        6.90843082      13.40497683       2.35725034
H        8.29472897      13.90803121       2.01518467
O        9.19181990       0.98885253      14.66087024
H       10.04807841       0.80232341      14.27582467
H        8.74399982       0.14293401      14.67140001
O        8.96704955       3.54588381       8.31939292
H        8.45455327       3.45111025       7.51652471
H        8.31385628       3.67272482       9.00749303
O        2.60690706       9.78763401      14.54325957
H        1.81596077      10.31806587      14.44693797
H        2.40597707       8.97170724      14.08486838
O        7.62458650      14.55552744      14.84821230
H        7.58017741      14.38288846      15.78866721
H        6.72298167      14.45489249      14.54290397
O       13.62454716       1.61381250      12.75869292
H       13.05199628       2.25946537      12.34450733
H       13.93600254       2.04479493      13.55460845
O        8.48927269       6.27713895       2.57819871
H        7.55267356       6.45365644       2.48956754
H        8.64568039       6.27981704       3.52252984
O        4.02605960      12.73303861       4.68513915
H        4.53824001      13.34950148       5.20847135
H        4.62269348      12.45448345       3.99039684
O       10.90299265      11.59742797       0.70817044
H       10.81526637      10.84617176       1.29481348
H       11.69722241      11.41760778       0.20508434
O        0.83898311      15.62005074       9.50333649
H        1.22646783      14.78851364       9.77652779
H        1.58762186      16.16694309       9.26525956
O       14.16625408      14.39071873       8.99370697
H       14.03206837      14.35332034       8.04669726
H       15.02805967      14.79395050       9.09823974
O        6.09586615      11.60653544       2.37408997
H        6.56228496      10.77066213       2.37302100
H        5.42446216      11.50757534       1.69906743
O        3.41557185       8.01181366       6.18994300
H        3.03361200       8.15894618       7.05521206
H        2.80605125       8.43288459       5.58379470
O        3.09252216       1.89154649      13.79083169
H        3.25657409       1.28482148      13.06888739
H        3.78999272       1.70940383      14.42058617
O        5.64029633      11.58251636      11.90164178
H        6.01909266      10.78592051      12.27336778
H        5.02692917      11.89055413      12.56881890
O       14.96862557       6.12578676       8.36362692
H       14.58635211       6.93211351       8.70994472
H       15.39869922       5.72121107       9.11701063
O       10.23292443       7.62520025       0.98420786
H        9.74629073       6.93647175       1.43705721
H       10.76132370       7.15929078       0.33616896
O       11.27556711       0.85834019       1.33630887
H       11.56449346      -0.00378186       1.63547267
H       11.80611452       1.03284549       0.55894204
O       12.50593034       8.73502891       4.73321362
H       12.60129645       8.06342853       5.40855803
H       12.77249350       8.30033466       3.92314151
O        4.36951000      11.31516819       0.16077029
H        5.16564203      11.30002666      -0.37043246
H        3.73311026      10.81098565      -0.34620820
O        0.25083366      15.05464800      12.84586914
H       -0.12495578      15.51509092      13.59620671
H        0.96932041      14.54093450      13.21479605
O       15.35545288       0.46308085      15.19595728
H       15.39522631       0.69340707      16.12418126
H       14.42343511       0.33337112      15.02060019
O        1.32677393      10.10232876      11.35263166
H        1.46865422       9.18794005      11.59757068
H        1.01128926      10.51936320      12.15436949
O       12.89154999       4.05217480       2.20155143
H       13.39897721       4.58787699       1.59181982
H       11.97989822       4.20184195       1.95110656
O       12.66313259       0.19896556      14.87356139
H       11.92238257      -0.40716210      14.88498546
H       12.67000507       0.55279312      13.98418483
O        1.50467975       8.75077117       4.23852948
H        1.39479984       7.92844392       3.76110289
H        0.65826291       9.19034185       4.15736311
O        6.65164305       3.15660405       6.36168680
H        7.15771631       3.39801527       5.58590183
H        6.15947192       2.38011674       6.09510307
O       10.64249061       9.45243688      13.29212882
H       11.15192608       9.02235575      13.97896037
H       11.24393520       9.51384189      12.55001989
O        6.28122922      14.49852256       7.83133938
H        6.11680766      13.56567902       7.96918101
H        5.66281476      14.93981770       8.41362281
O       12.25223819       9.78200574      11.12452266
H       11.47150076      10.00049257      10.61565685
H       12.86880036       9.43377327      10.48045972
O       10.97577645       6.83160685       3.53571040
H       11.87118688       6.64801184       3.25151876
H       10.81816804       7.73562612       3.26342271
O       15.44032296      12.25771858       5.63371946
H       15.26338675      11.55085987       5.01301327
H       15.30879537      13.05970417       5.12800073
O        4.55454045       5.28090482       7.20042935
H        5.14532711       6.01503834       7.03234923
H        5.09474901       4.50234265       7.06534606
O        2.11452965       6.56719816      15.24370451
H        1.76311770       6.67903355      16.12701325
H        3.01003437       6.90095427      15.29764891
O       10.53341636      13.01830345       4.78175889
H        9.87466744      13.34523851       5.39445389
H       10.26291504      12.11915076       4.59578761
O       12.82893073       6.47313311       6.21036451
H       12.23427815       5.85306705       6.63242875
H       13.62785907       6.43535218       6.73621425
O        0.68647556       2.27266998       6.00818545
H        1.42145540       1.94625428       5.48906189
H       -0.05533069       1.72943069       5.74201558
O       12.15171145       7.80742959      14.84684271
H       12.39003394       8.13779751      15.71303626
H       12.49766546       6.91516016      14.82676963
O       14.71895433       6.31056143       4.26106261
H       14.52683247       6.81848772       3.47281651
H       13.93412769       6.40034826       4.80163389
O       12.96536993       2.56414264       6.91566944
H       12.37305522       2.78420070       6.19666348
H       13.53163322       1.87967368       6.55918668
391
Properties=species:S:1:pos:R:3 charge=0 spin=4 spin_multiplicity=4 metal=Er geometry=box boundary=non-pbc pbc="F F F"
Er       7.89093312       7.89093312       7.89093312
O        6.79511736       6.08805267       8.51447936
H        7.07156344       5.36070845       9.08355225
O        8.82104603       7.91708626       5.89739205
H        9.51764522       7.36030641       5.53127489
O        8.38206248       7.62829366      10.01926873
H        9.16176653       7.23957577      10.43188963
O        6.11124829       7.70467313       6.38307731
H        5.19478838       7.94090175       6.52635714
H        6.13652376       7.37517405       5.48473253
O        9.49437037       6.18740133       7.94161261
H        9.34545887       5.24460555       8.01367730
H       10.44620963       6.27714661       7.89492588
O        6.02108760       8.68445341       9.05265739
H        5.44686500       9.41147168       8.81194038
H        5.65897743       8.35479367       9.87511256
O        7.54479764      10.06007778       7.08433429
H        7.93076203      10.46484009       6.30752620
H        6.98550449      10.74152351       7.45723472
O        9.93702621       8.98720460       8.18638516
H       10.42203753       9.11272915       9.00200728
H       10.47660435       9.41064247       7.51871186
O        0.53657371      14.36857931       7.10734694
H        0.28223510      14.99454918       6.42933113
H        0.80299286      14.91261031       7.84848320
O       12.11635794      13.75844068       1.83661145
H       11.65774525      12.92724711       1.71404110
H       12.87751916      13.53579692       2.37261070
O       11.21977106       6.27157386      11.00503553
H       11.23693019       5.33447064      11.19939333
H       12.14085278       6.53191239      10.99702636
O        7.68386080      12.95345170       6.08669589
H        7.35236788      13.76995570       6.46041436
H        7.28325912      12.90679849       5.21860971
O       14.37709073      13.87759425       0.32886584
H       13.73675340      14.42882099      -0.12096638
H       14.40267313      14.21978694       1.22244379
O       14.85373048       9.96083745       4.11383770
H       14.26117461       9.90233399       4.86329531
H       14.50418369       9.33256597       3.48191695
O       10.44638571      14.48812187      10.44695371
H       10.37273982      14.16953327       9.54733745
H        9.62044604      14.94417831      10.60840969
O        6.64332892       5.79801695       4.51761431
H        6.36452285       5.44557478       5.36276727
H        7.17400639       5.10175934       4.13052439
O        0.53175833      11.31259918      13.66767902
H        0.03877676      12.00157873      13.22213644
H       -0.12808806      10.66174989      13.90690648
O        1.44811133      10.91929091       1.67088350
H        0.52558366      10.92551088       1.41566624
H        1.91213919      10.62657656       0.88651861
O       13.86001032       7.16003274      11.60803379
H       14.02422190       7.79893917      12.30162227
H       14.03542016       7.63637619      10.79651660
O        3.46474710      15.50894101      12.18617942
H        3.12760329      14.87269828      12.81686245
H        3.85628251      14.97630327      11.49391581
O        4.37690696      14.03403593       0.08263252
H        4.26871369      13.08299998       0.07510336
H        5.25609961      14.17277063       0.43477567
O        2.10174835       5.53253074       6.05199766
H        1.77928858       5.72337193       5.17118487
H        2.62400250       6.29928471       6.28773225
O        9.15213969      10.34895778       4.72488284
H        9.56627576       9.84066595       5.42227985
H        8.45475822       9.78166097       4.39615004
O       13.83182805       9.43629098      13.46033004
H       13.17897934       9.48419567      12.76195654
H       13.37910310       9.00087144      14.18260547
O        0.27580792       1.14574273       2.00576899
H       -0.20721457       0.39685145       2.35517273
H       -0.27058397       1.90301532       2.21606870
O        1.51691220       6.15925248       3.41252608
H        0.59616227       5.90357257       3.35703562
H        2.00099635       5.34893457       3.25353156
O       11.77678792       4.71459659       8.08238305
H       12.35468619       5.25896934       8.61710143
H       12.33281061       3.99441725       7.78504094
O        7.62660644       5.16165631      12.31663358
H        6.79052371       5.61742535      12.41395831
H        8.28028612       5.86065867      12.29845631
O       14.65172943       5.69826381       0.37918402
H       14.52158764       6.32460394       1.09121842
H       13.79351083       5.62851375      -0.03893989
O        5.02468034      15.63110620       9.96130095
H        4.60296687      16.38082251      10.38119980
H        5.83346375      15.50215050      10.45675192
O        2.11173261       3.31425838      11.16845689
H        2.15276084       4.01490744      10.51758100
H        1.87072747       3.75661282      11.98238006
O        2.22694324       0.19024935      15.72855206
H        1.58049033       0.37547723      16.40974301
H        2.15480125       0.92753183      15.12238219
O       15.38983830      11.19623210       8.27839122
H       14.99208579      11.89521009       8.79748134
H       15.39709060      11.53620166       7.38362871
O       11.20099316       0.82377024       4.07946645
H       11.53351694       1.10127839       3.22585705
H       10.55693562       0.14519692       3.87708077
O       11.29880133       3.48472296       4.63459674
H       11.21697569       2.54183203       4.49144268
H       11.96286198       3.76626368       4.00531929
O        7.01923690       8.76196889      13.24060014
H        6.58251117       8.61168124      12.40219922
H        6.36847997       8.51529721      13.89779140
O        4.21101630       4.27706700      14.46659887
H        3.53650344       3.63395865      14.24825078
H        4.50145984       4.61699249      13.62023899
O       12.53352232      14.40607232       5.99505123
H       12.27886553      15.19143174       6.47939857
H       11.70439246      14.01103683       5.72538016
O       15.06043232       3.16639042      15.25498324
H       14.95278743       4.05667433      15.58970550
H       14.65474276       2.60949265      15.91944745
O        7.86857021       8.90174758       1.40688396
H        7.57981664       8.65332102       2.28502829
H        8.79044558       8.64595920       1.37606262
O        3.56591045       1.75314586       7.76900599
H        3.58912918       2.63649256       8.13696161
H        3.98171061       1.20496764       8.43447028
O        5.16323919       0.39068193       5.10790173
H        4.60940221      -0.38096043       5.22649558
H        4.57283614       1.05853347       4.75914622
O        4.63641325       7.55788639      15.50490384
H        4.88002628       6.79974123      16.03603513
H        4.89682473       8.31354217      16.03159355
O        5.42893970       5.44642742       1.24357781
H        5.18309572       4.90540905       0.49318345
H        6.34443258       5.22270611       1.41106931
O        3.29635465       2.14077284       4.14895916
H        2.75102831       1.54070550       3.64026455
H        3.29674358       2.95282669       3.64220455
O        8.30213204       5.10982590      14.95325644
H        7.51877800       4.73948733      15.35999668
H        8.20767609       4.90760171      14.02244213
O       10.15272525       6.47308076      13.49886960
H       10.54769408       6.45993731      12.62705614
H       10.72774779       7.03864794      14.01434481
O        9.74978723      14.69913421       2.79200359
H       10.33009426      14.30639379       2.13990655
H        9.77009080      14.08938171       3.52958172
O       10.65748626      14.20944081      15.36754121
H       10.87822872      13.34794831      15.72156844
H        9.70113553      14.21461168      15.32756156
O        1.22728530       4.81388593      13.35813526
H        0.57142810       4.30463975      13.83431959
H        1.64820327       5.35073735      14.02958924
O       14.84178853      14.78398126       3.15682376
H       15.56400081      14.23164727       3.45610360
H       14.61559116      15.31708099       3.91897286
O        4.14337698       6.67290489       3.89857357
H        3.91532723       6.96340400       4.78165648
H        4.97748355       6.21540071       4.00434687
O        6.65523196       3.74068949       9.88149003
H        5.74428272       3.55968177      10.11309211
H        7.02350716       4.15491412      10.66188940
O        1.43366138       7.90450878      12.96981218
H        0.72759740       8.49929360      13.22266888
H        1.51790329       7.30358260      13.71009784
O        7.46773352       0.26880145       3.39536418
H        7.29159065      -0.43353973       2.76932713
H        6.66786313       0.33112648       3.91743198
O        4.71719984       0.55066281       1.49667805
H        4.67999888      -0.16427953       2.13205620
H        3.94118998       0.42666447       0.95017558
O        9.39451591      13.57695083       8.10988653
H        8.92339570      13.14075019       7.39995232
H        9.68176591      14.40820940       7.73209231
O        3.91146217       5.56293037      12.08852767
H        3.63484952       6.33247196      11.59101082
H        3.50929530       4.82432757      11.63140672
O        0.17699928       5.28368774      10.87279823
H       -0.55174382       5.87616711      11.05755084
H        0.60689592       5.16081668      11.71915714
O        7.16075274      11.52466176      15.65440789
H        7.58485743      10.74069936      16.00336349
H        7.29186308      12.18951822      16.33043142
O       11.81699075       3.62002694      10.90002328
H       11.78273616       3.92415032       9.99306824
H       11.22299632       2.86981424      10.92417615
O       15.13862565       8.54260271      15.76438898
H       15.10823462       7.61598092      15.52631277
H       15.93419455       8.87186376      15.34619153
O        7.70953355      15.17632151      10.19635791
H        7.99533211      16.05145495       9.93426538
H        7.31976275      14.80419526       9.40526208
O        5.81935098       2.10620733      13.10062176
H        5.15631480       1.50105699      12.76834489
H        5.31768323       2.80439638      13.52144638
O       10.21230085       0.38900988       8.14711162
H       10.40731109       0.27397442       9.07714908
H       10.55907359       1.25550324       7.93457982
O        3.30493022       4.31732039       2.51326329
H        2.76972995       4.22278840       1.72531899
H        4.14126475       4.65795931       2.19586524
O       14.10143365       0.68552816       5.16379675
H       13.21686082       0.49578436       4.85113072
H       14.27086825       0.01531537       5.82586817
O       13.79871423       7.99319117       2.29383476
H       14.28618725       8.26812375       1.51729502
H       13.11252139       7.41808088       1.95527992
O       10.00134033       4.46385276       1.21084080
H        9.63662397       5.04306705       1.87996307
H        9.48280659       4.64607025       0.42716269
O       14.91934326       1.77623978      10.36775505
H       15.63683524       1.15030484      10.26955853
H       14.61011078       1.64808735      11.26451815
O        6.94625858       8.57360361       3.94461158
H        6.11684926       8.19258973       3.65627075
H        7.51445140       7.81975238       4.10303216
O        0.49646574       2.14946343      13.02117562
H        1.44417902       2.15622961      13.15543507
H        0.15149430       1.66286362      13.76980581
O       12.69269718       0.23199203      10.60384384
H       13.39246565      -0.24961186      10.16269349
H       11.90526158      -0.28796025      10.44313717
O       13.96794903       4.29305380      12.43909831
H       13.27532284       4.10346915      11.80620143
H       13.53176903       4.79159962      13.13006207
O        1.75480455       9.71185374       7.51279100
H        0.98339854      10.16505917       7.85304010
H        1.62375369       9.69365219       6.56477928
O        7.46055740       2.03116962       0.69963701
H        7.93301961       1.57013345       0.00648700
H        6.66967847       1.51015535       0.83851284
O        0.14875360       3.39261119       8.42789312
H        0.27042088       2.97400061       7.57572289
H       -0.39291940       2.77747696       8.92229384
O        2.06646710      12.99295151      10.51799325
H        1.71672019      12.17050809      10.86076980
H        2.79270719      12.72814409       9.95347203
O       12.38576708       5.12100604      14.49082808
H       11.58010835       5.27227547      13.99659797
H       12.19447816       4.35589369      15.03327022
O       14.28454351      12.97312377      12.94388049
H       13.69908861      13.25639601      13.64618473
H       14.89829165      13.69960642      12.83540006
O        9.47054636      11.76232397      12.46182401
H        9.89146338      10.96360602      12.77980254
H        9.41287628      11.64217756      11.51394699
O        2.39026200      13.81159871      14.02000305
H        1.84366354      13.17806979      14.48487193
H        2.43477021      14.56644885      14.60690349
O        3.72771975      11.34637625       8.42620396
H        4.41064641      11.33721188       7.75556319
H        3.04843376      10.76469683       8.08495415
O        2.40299141       7.20185330      10.52746313
H        2.68572497       7.19476870       9.61299969
H        1.71706884       6.53568484      10.57175355
O       14.11871216      10.82842840       1.11463863
H       14.26510397      10.60695260       2.03428516
H       14.53618242      10.11815104       0.62734355
O        1.87898294      14.01471681       1.80300282
H        2.67181391      14.06130303       1.26869896
H        1.65444328      13.08435696       1.81863402
O       13.02783729      12.02566023       7.21476347
H       13.73497642      12.06230170       6.57068001
H       12.53027887      12.83063437       7.07094385
O       11.00854163       0.87847575      12.63955088
H       10.80016924       1.80573570      12.75357620
H       11.74234251       0.87121393      12.02496534
O       14.18527783       8.93199640       9.34804953
H       14.55225107       9.77914936       9.09527622
H       13.69516496       8.64342097       8.57814991
O       10.79054637       9.69933617       2.65316487
H       10.09202308      10.04962421       3.20597167
H       11.53148552       9.58262152       3.24782334
O        8.17655552       3.68194564       3.59095442
H        8.71004906       3.59339758       2.80115968
H        7.79457452       2.81396854       3.72110095
O        7.39243014      13.89939016       1.69578836
H        6.90843082      13.40497683       2.35725034
H        8.29472897      13.90803121       2.01518467
O        9.19181990       0.98885253      14.66087024
H       10.04807841       0.80232341      14.27582467
H        8.74399982       0.14293401      14.67140001
O        8.96704955       3.54588381       8.31939292
H        8.45455327       3.45111025       7.51652471
H        8.31385628       3.67272482       9.00749303
O        2.60690706       9.78763401      14.54325957
H        1.81596077      10.31806587      14.44693797
H        2.40597707       8.97170724      14.08486838
O        7.62458650      14.55552744      14.84821230
H        7.58017741      14.38288846      15.78866721
H        6.72298167      14.45489249      14.54290397
O       13.62454716       1.61381250      12.75869292
H       13.05199628       2.25946537      12.34450733
H       13.93600254       2.04479493      13.55460845
O        8.48927269       6.27713895       2.57819871
H        7.55267356       6.45365644       2.48956754
H        8.64568039       6.27981704       3.52252984
O        4.02605960      12.73303861       4.68513915
H        4.53824001      13.34950148       5.20847135
H        4.62269348      12.45448345       3.99039684
O       10.90299265      11.59742797       0.70817044
H       10.81526637      10.84617176       1.29481348
H       11.69722241      11.41760778       0.20508434
O        0.83898311      15.62005074       9.50333649
H        1.22646783      14.78851364       9.77652779
H        1.58762186      16.16694309       9.26525956
O       14.16625408      14.39071873       8.99370697
H       14.03206837      14.35332034       8.04669726
H       15.02805967      14.79395050       9.09823974
O        6.09586615      11.60653544       2.37408997
H        6.56228496      10.77066213       2.37302100
H        5.42446216      11.50757534       1.69906743
O        3.41557185       8.01181366       6.18994300
H        3.03361200       8.15894618       7.05521206
H        2.80605125       8.43288459       5.58379470
O        3.09252216       1.89154649      13.79083169
H        3.25657409       1.28482148      13.06888739
H        3.78999272       1.70940383      14.42058617
O        5.64029633      11.58251636      11.90164178
H        6.01909266      10.78592051      12.27336778
H        5.02692917      11.89055413      12.56881890
O       14.96862557       6.12578676       8.36362692
H       14.58635211       6.93211351       8.70994472
H       15.39869922       5.72121107       9.11701063
O       10.23292443       7.62520025       0.98420786
H        9.74629073       6.93647175       1.43705721
H       10.76132370       7.15929078       0.33616896
O       11.27556711       0.85834019       1.33630887
H       11.56449346      -0.00378186       1.63547267
H       11.80611452       1.03284549       0.55894204
O       12.50593034       8.73502891       4.73321362
H       12.60129645       8.06342853       5.40855803
H       12.77249350       8.30033466       3.92314151
O        4.36951000      11.31516819       0.16077029
H        5.16564203      11.30002666      -0.37043246
H        3.73311026      10.81098565      -0.34620820
O        0.25083366      15.05464800      12.84586914
H       -0.12495578      15.51509092      13.59620671
H        0.96932041      14.54093450      13.21479605
O       15.35545288       0.46308085      15.19595728
H       15.39522631       0.69340707      16.12418126
H       14.42343511       0.33337112      15.02060019
O        1.32677393      10.10232876      11.35263166
H        1.46865422       9.18794005      11.59757068
H        1.01128926      10.51936320      12.15436949
O       12.89154999       4.05217480       2.20155143
H       13.39897721       4.58787699       1.59181982
H       11.97989822       4.20184195       1.95110656
O       12.66313259       0.19896556      14.87356139
H       11.92238257      -0.40716210      14.88498546
H       12.67000507       0.55279312      13.98418483
O        1.50467975       8.75077117       4.23852948
H        1.39479984       7.92844392       3.76110289
H        0.65826291       9.19034185       4.15736311
O        6.65164305       3.15660405       6.36168680
H        7.15771631       3.39801527       5.58590183
H        6.15947192       2.38011674       6.09510307
O       10.64249061       9.45243688      13.29212882
H       11.15192608       9.02235575      13.97896037
H       11.24393520       9.51384189      12.55001989
O        6.28122922      14.49852256       7.83133938
H        6.11680766      13.56567902       7.96918101
H        5.66281476      14.93981770       8.41362281
O       12.25223819       9.78200574      11.12452266
H       11.47150076      10.00049257      10.61565685
H       12.86880036       9.43377327      10.48045972
O       10.97577645       6.83160685       3.53571040
H       11.87118688       6.64801184       3.25151876
H       10.81816804       7.73562612       3.26342271
O       15.44032296      12.25771858       5.63371946
H       15.26338675      11.55085987       5.01301327
H       15.30879537      13.05970417       5.12800073
O        4.55454045       5.28090482       7.20042935
H        5.14532711       6.01503834       7.03234923
H        5.09474901       4.50234265       7.06534606
O        2.11452965       6.56719816      15.24370451
H        1.76311770       6.67903355      16.12701325
H        3.01003437       6.90095427      15.29764891
O       10.53341636      13.01830345       4.78175889
H        9.87466744      13.34523851       5.39445389
H       10.26291504      12.11915076       4.59578761
O       12.82893073       6.47313311       6.21036451
H       12.23427815       5.85306705       6.63242875
H       13.62785907       6.43535218       6.73621425
O        0.68647556       2.27266998       6.00818545
H        1.42145540       1.94625428       5.48906189
H       -0.05533069       1.72943069       5.74201558
O       12.15171145       7.80742959      14.84684271
H       12.39003394       8.13779751      15.71303626
H       12.49766546       6.91516016      14.82676963
O       14.71895433       6.31056143       4.26106261
H       14.52683247       6.81848772       3.47281651
H       13.93412769       6.40034826       4.80163389
O       12.96536993       2.56414264       6.91566944
H       12.37305522       2.78420070       6.19666348
H       13.53163322       1.87967368       6.55918668
391
Properties=species:S:1:pos:R:3 charge=0 spin=4 spin_multiplicity=4 metal=Er geometry=droplet boundary=non-pbc droplet_radius=9.7941 pbc="F F F"
Er       0.00000000       0.00000000       0.00000000
O        1.79675125      -1.26165994      -0.14106425
H        1.88724516      -2.18338194      -0.40852532
O       -0.55292611       1.23685458      -1.73333882
H       -0.50449946       2.19209294      -1.85363231
O        0.95103012       0.13245008       1.97939352
H        0.74968507       0.70760708       2.72635443
O       -0.45494454      -1.52252376      -1.71771559
H       -0.61260718      -1.33249976      -2.64252109
H       -0.52509722      -2.47495776      -1.65306319
O        1.77792219       1.49613987      -0.27596768
H        2.23185231       1.72336576      -1.08747719
H        2.21429387       2.01811214       0.39734989
O       -0.56732499      -1.99363881       1.08588520
H       -0.85706461      -2.10571745       1.99126974
H       -0.56167567      -2.87988294       0.72426210
O       -2.33452787      -0.11449483      -0.11167165
H       -2.90666161       0.24066295      -0.79193467
H       -2.93141849      -0.52698636       0.51267134
O       -0.75565267       2.02002270       0.90779808
H       -0.54287665       2.39406157       1.76281453
H       -1.34682484       2.65751845       0.50736522
O       -1.39393741      -1.01291490       3.63737947
H       -2.14621535      -0.85584901       3.06673067
H       -0.66601044      -0.56873319       3.20257289
O       -2.20765606       4.07575716      -0.12370826
H       -2.56624659       4.96066107      -0.05596058
H       -2.32827179       3.83766202      -1.04294402
O       -4.23173405      -1.25699178      -1.69070434
H       -4.97058211      -1.13298721      -1.09492061
H       -3.92257969      -2.14431730      -1.50819723
O       -0.89854916      -3.89192443      -2.97769789
H       -0.12665302      -4.45035813      -3.07021817
H       -1.52255988      -4.23734160      -3.61607822
O        3.91289599      -2.96399646       0.00854131
H        3.53457772      -3.70463025      -0.46534550
H        4.82019038      -3.22170643       0.17174150
O        0.43459085       1.74368841       4.35790492
H       -0.20130172       2.38320160       4.67867798
H        0.39240146       1.02571248       4.98953967
O       -4.23364813      -1.36515897       1.79427984
H       -4.03064355      -2.02216851       1.12842742
H       -4.70503325      -0.68036035       1.31985517
O       -0.77056682       4.15229625       2.59646236
H       -1.43503608       4.21524891       1.91035056
H       -1.25240587       3.86324333       3.37138905
O       -1.52339855      -4.76275467      -0.47777416
H       -1.09739069      -4.59049522      -1.31746209
H       -0.84769159      -5.18613142       0.05175778
O       -1.18738830       3.01011661      -3.87029139
H       -1.45534501       3.48985402      -3.08652928
H       -1.03383892       3.68957975      -4.52678531
O        0.07481630       4.77152899      -1.80617552
H       -0.48926607       4.53387325      -1.07026611
H        0.29644062       3.93642449      -2.21814031
O        3.96967640       1.51527425       3.19960076
H        3.66796198       0.70132002       2.79626621
H        3.65956195       2.20387734       2.61147947
O       -3.76418274       1.55560683       3.51237287
H       -4.68224405       1.30390548       3.61258116
H       -3.27968257       0.73431242       3.59584090
O        3.54044027       0.29796000      -4.14278795
H        2.83795082       0.87868223      -4.43519537
H        3.19680185      -0.11418970      -3.35014862
O        1.86485359      -5.00557417      -1.32760052
H        1.35546310      -5.78085508      -1.56359348
H        2.57744256      -4.98305440      -1.96630363
O       -3.78637692      -3.93878596      -1.78034140
H       -2.85957967      -3.82173043      -1.57159106
H       -3.98215767      -4.83551609      -1.50872252
O        4.01973726       3.77159514       1.31729693
H        4.69687532       3.09912311       1.24315344
H        4.33720538       4.35706330       2.00480901
O        1.13570786       2.21210430      -5.10101098
H        0.20384941       2.23218100      -4.88313808
H        1.20676335       2.73495897      -5.89963852
O       -4.50814475       3.36434891       1.14121606
H       -4.16718870       2.87158304       1.88764932
H       -3.75129858       3.48578450       0.56791937
O       -5.72699357       1.10161968       0.25079207
H       -5.26847901       1.88127686       0.56405061
H       -5.06808242       0.62068142      -0.24997367
O       -2.92876386      -3.82978433       3.36494964
H       -3.29656191      -3.04909996       2.95083812
H       -2.85081808      -3.59660299       4.29003491
O        5.59716555       1.54903175       1.00714005
H        5.29684271       1.33742090       1.89102855
H        5.91827493       0.71789833       0.65737179
O       -1.67857654      -0.33650083      -5.65288009
H       -2.45051805      -0.51878877      -5.11705432
H       -1.99832529      -0.37220513      -6.55438871
O        1.58349075       4.20169489       3.95821591
H        0.83134865       4.37948654       3.39349985
H        1.59193918       3.24932750       4.05390713
O       -1.80897943       7.60553135       1.61918764
H       -1.12354297       7.48790079       0.96148576
H       -1.38439981       7.38985058       2.44951636
O        2.63505796       7.23085693       1.66580764
H        2.96200781       6.33287954       1.61128935
H        2.06144199       7.32399850       0.90520182
O       -4.90970091       2.75169309      -2.62568247
H       -4.43763111       1.93193443      -2.77189356
H       -5.80311497       2.47993710      -2.41546389
O        2.72341917       5.06421046      -2.35173981
H        1.80198718       5.15692951      -2.10966937
H        2.70354982       4.73950812      -3.25196503
O        6.24302192      -0.64513764      -0.50024074
H        5.38793517      -0.65549693      -0.93030022
H        6.12072634      -1.17162586       0.28975027
O       -0.43605679      -2.75611646      -5.64810080
H       -0.45525545      -3.02910411      -4.73085438
H       -1.06994758      -2.04068993      -5.69888650
O        2.85292757       0.93767882       5.61190840
H        3.07634144       1.22447453       4.72643322
H        3.68365512       0.64379915       5.98575104
O       -2.30480803       3.38768317       4.90057233
H       -2.74933884       2.67736973       4.43788559
H       -3.01356214       3.90969325       5.27661081
O        5.79523706      -1.73138519       2.11583362
H        6.56058272      -2.30620832       2.12333181
H        6.03874348      -1.00013662       2.68347081
O        0.38945111      -0.13306877       6.47363626
H        1.30789075       0.13456580       6.44089175
H        0.30369145      -0.78248000       5.77568055
O       -4.30583659      -0.14471984      -4.97529154
H       -4.58669989       0.62725837      -4.48396956
H       -4.65089626      -0.00643985      -5.85735974
O       -2.61857293      -2.32635772       5.68030891
H       -3.50321300      -2.00976755       5.49751275
H       -2.07070113      -1.90246791       5.01971390
O        0.67620968      -4.81080847       3.83205022
H        1.60945653      -4.73903203       4.03237570
H        0.37387534      -3.90478786       3.76918191
O        4.81421678      -3.09410237      -3.65672211
H        5.44537332      -3.15481157      -2.93965332
H        4.51379128      -2.18551264      -3.63572062
O       -4.95484961      -1.84808035       4.37208033
H       -4.90646173      -1.55310751       3.46275009
H       -5.88745522      -1.81644741       4.58533598
O       -6.03185779      -2.69989604      -3.13144096
H       -6.51754708      -2.62253010      -2.31025141
H       -5.14647801      -2.94677720      -2.86426280
O       -3.05520939       2.76883265      -5.87938271
H       -2.47983260       2.52670313      -5.15374734
H       -3.71259514       2.07361260      -5.90667541
O       -7.37994812      -1.85747550       2.08679723
H       -6.44782678      -1.66763130       1.98030399
H       -7.82131146      -1.20644318       1.54128173
O        4.89891636       5.31962069      -0.73917117
H        4.13129523       5.30075686      -1.31069002
H        4.70836283       4.67265291      -0.05994081
O       -0.91381933       5.99670362      -4.05898485
H       -0.56701746       5.54839077      -3.28763805
H       -0.15745724       6.44675155      -4.43528936
O        0.60614438       0.61492774      -7.23806258
H       -0.04189671       0.26592968      -6.62611901
H        0.52091124       0.06536578      -8.01713178
O        6.25390098       3.03492967      -2.25725364
H        5.71652031       3.68523879      -1.80497948
H        7.02881849       2.93720504      -1.70391416
O       -6.34174661       0.70500431       3.68855415
H       -6.57235888      -0.09486827       3.21605687
H       -6.61371572       0.53757531       4.59090229
O        3.42046757      -2.22896115       6.95339683
H        4.24506219      -1.75145289       7.04428915
H        3.19527336      -2.14479190       6.02687919
O        6.44921870       0.38353811       3.69627895
H        6.97370194       1.13302428       3.41446405
H        5.55579700       0.72274166       3.75078078
O        3.33074777      -3.15863387      -5.95915726
H        2.55729775      -3.71785253      -6.03183047
H        3.59613209      -3.23401872      -5.04257659
O       -5.68998319      -4.84409560       0.26950874
H       -5.24969682      -4.12804799      -0.18837288
H       -5.19076445      -5.62493683       0.03013567
O        3.54123441      -5.73004163      -3.36415018
H        3.07229281      -5.78455832      -4.19682872
H        3.96124412      -4.87007892      -3.38111542
O       -3.55661630       5.28164914      -4.00039561
H       -2.65235246       5.58235747      -4.09046921
H       -3.62903052       4.55139810      -4.61498607
O        0.39758865       7.40159061      -1.19203772
H        0.30313029       6.52523149      -1.56527244
H        0.08888031       7.99031157      -1.88076018
O        1.08733199       2.43333076       7.04368925
H        0.90431042       3.10459132       6.38631249
H        1.86051481       1.97693799       6.71183717
O       -3.77668711      -6.23245664       2.00386989
H       -3.57116270      -5.38473900       2.39803528
H       -3.50305433      -6.14521395       1.09077315
O        6.47941672      -3.86672200       0.45417904
H        7.06745173      -3.50912034      -0.21107859
H        7.04365713      -4.03155431       1.20962256
O        0.67261236      -7.09338321      -2.59961245
H        0.46699583      -6.85556722      -3.50371269
H        0.10789294      -7.84374849      -2.41447531
O       -4.86518146       4.75272250       3.45277892
H       -4.93203746       5.22010425       2.62012268
H       -4.17025853       5.20786376       3.92834217
O       -0.79657333       4.23378495      -6.26786360
H       -1.01146110       5.16580102      -6.23043193
H       -1.63785122       3.79893891      -6.40711971
O        4.54150983       3.15686594       5.29162963
H        3.78038478       3.72465357       5.41220201
H        4.35259552       2.66930227       4.48986601
O       -2.14910689      -4.95402218      -5.50502198
H       -2.29219850      -4.26904758      -6.15814250
H       -3.02486097      -5.16161507      -5.17915110
O        5.90982459       1.47250141      -4.77909003
H        5.00425016       1.16928422      -4.71408130
H        6.16219226       1.66977483      -3.87707806
O       -0.40552922       6.67644046       4.40921803
H       -0.39461459       5.89804977       3.85224348
H        0.06109440       6.41103119       5.20171545
O        4.27000199      -4.59160758       4.74710448
H        3.54791413      -5.21573437       4.81981433
H        3.85493994      -3.77604439       4.46636971
O       -4.05694042      -6.69068601      -0.88013277
H       -3.77095075      -7.45688278      -0.38275539
H       -4.24805012      -7.02985927      -1.75458713
O        5.13358716      -5.56195199       2.32242496
H        4.91218206      -5.09184503       3.12629751
H        5.26801696      -4.87352619       1.67109526
O       -5.53640120      -4.60326772       3.34581642
H       -5.40795249      -4.63537505       2.39781753
H       -5.19988436      -3.74537421       3.60467351
O       -5.09146233       6.10697707       0.90589383
H       -4.23000181       6.51827137       0.97628287
H       -5.18611573       5.90605519      -0.02518241
O       -5.42834493       5.55448516      -2.03156671
H       -4.71963770       5.88381541      -2.58429403
H       -5.36841460       4.60211198      -2.10657021
O       -7.48316858      -3.09300963      -0.78718461
H       -7.19089388      -3.93471315      -0.43740963
H       -7.63037331      -2.54953462      -0.01310611
O        0.95281940      -8.04135579       1.15665949
H        1.71756046      -8.11355917       0.58552936
H        0.72511649      -7.11185293       1.13646923
O       -7.51257100       1.96224000      -2.61031019
H       -8.00810044       1.16527152      -2.79878741
H       -8.17365931       2.59527895      -2.33021062
O        0.19979431      -6.41517005      -5.19754546
H       -0.54320301      -5.83246910      -5.35453727
H        0.93953401      -5.98048671      -5.62188897
O       -2.57181226      -2.95192336      -7.32100490
H       -2.54442192      -2.03122610      -7.58138570
H       -3.50183239      -3.13673237      -7.19008495
O       -3.28964739      -0.53263887       7.61179366
H       -2.78552124      -1.16541142       7.10023959
H       -2.63672826       0.08626770       7.93872349
O        3.31155378       1.96933380      -7.39570225
H        3.04613440       2.88178624      -7.51065848
H        2.48790985       1.48391399      -7.34869019
O        2.66458349      -1.84545667       3.83477098
H        2.04269310      -2.54326694       4.04103541
H        2.16576761      -1.23078181       3.29663589
O        1.18132929      -4.49532979      -6.97384709
H        0.56198940      -3.92975471      -6.51257192
H        1.50283644      -3.95859671      -7.69826589
O        1.95976095       7.46525555      -3.41778883
H        2.42215171       6.67774673      -3.13098491
H        2.53344455       8.18724894      -3.16118698
O        2.81765107       5.14821871       6.18965960
H        3.43664567       5.69026215       5.70051093
H        2.19452310       4.84157361       5.53093951
O       -6.38815987       2.92758583      -4.90212180
H       -5.54914746       3.00274525      -4.44754388
H       -6.99041956       2.58863742      -4.23983102
O        0.13688672      -2.08617131       8.34980304
H        0.37002924      -1.67205502       9.18069660
H        0.28562419      -1.40621593       7.69271120
O       -1.36443652       3.61636132       7.69913008
H       -1.73195886       3.50209057       6.82271615
H       -0.53673246       3.13611409       7.67675964
O       -2.68932105      -0.33820549      -8.17811154
H       -2.57383306       0.60623387      -8.28265177
H       -2.85692820      -0.65902510      -9.06423482
O       -5.72038514       3.30487395       5.61806950
H       -5.42067057       3.71143886       4.80498402
H       -6.65396995       3.51197679       5.66001777
O        1.62179825       4.09795300      -7.50575152
H        0.76710731       4.22345057      -7.09345844
H        2.23918826       4.52780462      -6.91389934
O       -2.04053977       2.29634756      -8.36947659
H       -2.57130871       2.88809024      -8.90272771
H       -2.41065958       2.36895861      -7.48972049
O       -5.04910937      -3.60405847      -6.40660953
H       -5.54676098      -2.92908777      -5.94510194
H       -5.25824513      -4.41524092      -5.94349281
O        5.69873902       6.07765181      -3.22939177
H        6.03407102       5.38150532      -3.79433811
H        5.83319843       5.75056354      -2.33991678
O        8.67873774      -0.94430324      -2.00770860
H        8.98139765      -0.04015994      -2.09228830
H        7.85106263      -0.87677776      -1.53165601
O        8.85795599      -1.03511571       1.23509708
H        9.51549115      -1.41041580       0.64941013
H        8.08263704      -0.92302088       0.68505424
O        3.96989348       5.61725751      -5.82286338
H        4.54533881       5.85225314      -6.55078615
H        4.50066725       5.76475549      -5.04007645
O        4.10963660      -8.04658624      -0.97885906
H        3.94233668      -7.38389757      -1.64899808
H        3.81252689      -7.64336336      -0.16315754
O       -2.20607071      -5.88753597       6.59181187
H       -2.31501148      -4.96622716       6.35611332
H       -2.64954487      -5.97341306       7.43572397
O        7.79768704       4.66994423      -0.72693575
H        8.20474078       5.53489823      -0.77586095
H        6.85738792       4.84797107      -0.70754883
O       -9.00933717       1.45239270       1.01991312
H       -8.07689422       1.38082214       0.81580619
H       -9.31279270       2.19553647       0.49848822
O       -0.24335422      -1.10569736      -9.16580774
H       -0.41153485      -1.86541899      -9.72327538
H       -1.00710667      -1.05606785      -8.59095911
O        6.54239957      -3.36329001       5.59907220
H        5.74319891      -3.78224495       5.27971832
H        7.11987752      -4.09140514       5.82841784
O        2.28303821      -8.27828009       3.51733611
H        1.81925338      -8.18656553       2.68503574
H        1.92148408      -7.58625681       4.07106370
O        0.06389989       1.24172789       9.26429049
H       -0.75800477       1.71806024       9.38181523
H        0.46727553       1.64512949       8.49566373
O       -2.67224685       8.90694928      -2.19522091
H       -1.77366181       8.97713486      -2.51747975
H       -2.58443336       8.88501247      -1.24230990
O       -5.41275386       0.44358991      -7.61799160
H       -4.49907339       0.23222918      -7.80968532
H       -5.66107507       1.07193459      -8.29604129
O        6.43564307       6.48659728       2.03258083
H        6.86116806       7.29987640       1.76103453
H        5.99698768       6.16999234       1.24291343
O        6.58697387      -0.81295215      -6.64847765
H        6.39470460      -0.09492519      -6.04540083
H        6.33181591      -0.47891031      -7.50844411
O       -2.22135646      -7.64291125      -5.02701536
H       -1.26593122      -7.59209726      -4.99851314
H       -2.43378790      -7.64589386      -5.96034051
O        7.68228941      -4.71025087       2.74328980
H        8.28575230      -5.24129896       3.26295538
H        6.86229248      -5.20401758       2.74888589
O        7.25222861       3.83504119      -4.65759099
H        6.81395020       3.07802253      -5.04626388
H        7.18760543       3.69116905      -3.71347421
O       -7.46884274      -2.14365385       5.36750728
H       -8.20159138      -2.47180688       5.88868562
H       -7.86093918      -1.89973505       4.52905880
O        5.78842396      -4.30546402      -6.16654301
H        5.44152563      -3.89506481      -5.37441557
H        5.15303271      -4.08663334      -6.84817557
O       -4.50426285      -7.63257067      -3.39233496
H       -3.70372730      -7.64647542      -3.91691225
H       -4.75241714      -8.55325531      -3.30872228
O       -5.75664884      -5.79591259      -4.95969473
H       -5.41178242      -6.33751387      -4.24978836
H       -6.65155217      -5.58875535      -4.69050011
O        2.43088975      -2.93986468      -8.82691406
H        2.55555474      -2.00106259      -8.96598641
H        3.31832143      -3.29599158      -8.78366507
O        4.72474007       6.70142702       5.02821418
H        5.19046811       6.72450419       4.19227358
H        5.04892087       7.46567735       5.50472241
O       -8.73365954      -2.97133444      -3.28916067
H       -8.41833878      -3.08384093      -2.39241826
H       -7.94064310      -2.97918245      -3.82515991
O        2.91550981      -0.29391000      -9.23028510
H        3.51043681      -0.48266582      -9.95600195
H        3.30401796       0.46330955      -8.79220770
O        7.17373941       2.82918226       5.89361917
H        7.62347366       2.72880960       5.05463391
H        6.25629045       2.96863311       5.65894340
O       -0.15303629       9.16829948      -3.18702543
H        0.72632286       8.90247463      -3.45590544
H       -0.31526442       9.98074215      -3.66645300
O        9.27609367       2.80703877       0.59306017
H       10.17273018       2.94274490       0.28669656
H        8.75561642       3.44186748       0.10079218
O       -7.28814977      -6.16974726      -1.76904409
H       -6.63813661      -6.55656568      -2.35563275
H       -6.77141268      -5.69698466      -1.11657941
O       -8.00969642       3.57145935       4.17362127
H       -7.55866348       2.73273458       4.07696778
H       -8.78959280       3.48919659       3.62478039
O       -8.51705986      -4.50934828       1.29211729
H       -8.18424758      -3.66246093       1.58918572
H       -8.99224746      -4.31082805       0.48526024
O       -9.15207720      -0.25006106      -3.32981965
H       -8.99465471      -1.19422718      -3.33040940
H       -9.47991538      -0.06087279      -4.20900210
391
Lattice="41.652645551855166 0.0 0.0 0.0 41.652645551855166 0.0 0.0 0.0 41.652645551855166" Properties=species:S:1:pos:R:3 charge=0 spin=4 spin_multiplicity=4 metal=Er geometry=droplet boundary=pbc droplet_radius=9.7941 pbc="T T T"
Er      20.47991538      20.11257936      21.11341614
O       22.27666663      18.85091941      20.97235188
H       22.36716054      17.92919742      20.70489082
O       19.92698927      21.34943394      19.38007731
H       19.97541591      22.30467230      19.25978383
O       21.43094549      20.24502944      23.09280966
H       21.22960044      20.82018644      23.83977056
O       20.02497084      18.59005559      19.39570055
H       19.86730819      18.78007960      18.47089505
H       19.95481815      17.63762160      19.46035295
O       22.25783757      21.60871923      20.83744846
H       22.71176768      21.83594512      20.02593894
H       22.69420925      22.13069150      21.51076603
O       19.91259038      18.11894055      22.19930134
H       19.62285076      18.00686191      23.10468588
H       19.91823970      17.23269642      21.83767824
O       18.14538751      19.99808453      21.00174449
H       17.57325376      20.35324231      20.32148147
H       17.54849688      19.58559300      21.62608747
O       19.72426271      22.13260206      22.02121421
H       19.93703873      22.50664092      22.87623067
H       19.13309054      22.77009780      21.62078135
O       19.08597796      19.09966446      24.75079561
H       18.33370003      19.25673035      24.18014681
H       19.81390494      19.54384617      24.31598903
O       18.27225931      24.18833652      20.98970788
H       17.91366878      25.07324043      21.05745555
H       18.15164359      23.95024138      20.07047212
O       16.24818132      18.85558758      19.42271180
H       15.50933327      18.97959215      20.01849553
H       16.55733568      17.96826206      19.60521891
O       19.58136622      16.22065493      18.13571825
H       20.35326235      15.66222123      18.04319797
H       18.95735549      15.87523776      17.49733792
O       24.39281137      17.14858290      21.12195745
H       24.01449309      16.40794911      20.64807064
H       25.30010576      16.89087293      21.28515764
O       20.91450623      21.85626777      25.47132106
H       20.27861365      22.49578096      25.79209411
H       20.87231684      21.13829184      26.10295581
O       16.24626725      18.74742039      22.90769598
H       16.44927183      18.09041085      22.24184356
H       15.77488213      19.43221901      22.43327131
O       19.70934856      24.26487561      23.70987849
H       19.04487929      24.32782827      23.02376670
H       19.22750951      23.97582269      24.48480519
O       18.95651682      15.34982469      20.63564198
H       19.38252469      15.52208414      19.79595405
H       19.63222378      14.92644794      21.16517392
O       19.29252708      23.12269597      17.24312475
H       19.02457036      23.60243338      18.02688686
H       19.44607646      23.80215911      16.58663083
O       20.55473168      24.88410835      19.30724061
H       19.99064930      24.64645261      20.04315003
H       20.77635599      24.04900385      18.89527583
O       24.44959178      21.62785361      24.31301690
H       24.14787736      20.81389938      23.90968235
H       24.13947732      22.31645670      23.72489561
O       16.71573264      21.66818619      24.62578900
H       15.79767133      21.41648483      24.72599730
H       17.20023281      20.84689178      24.70925704
O       24.02035564      20.41053936      16.97062819
H       23.31786619      20.99126159      16.67822077
H       23.67671723      19.99838966      17.76326752
O       22.34476896      15.10700519      19.78581562
H       21.83537848      14.33172428      19.54982266
H       23.05735793      15.12952496      19.14711251
O       16.69353846      16.17379340      19.33307474
H       17.62033571      16.29084893      19.54182508
H       16.49775770      15.27706327      19.60469362
O       24.49965264      23.88417450      22.43071306
H       25.17679070      23.21170247      22.35656958
H       24.81712075      24.46964266      23.11822515
O       21.61562324      22.32468366      16.01240516
H       20.68376479      22.34476036      16.23027805
H       21.68667872      22.84753833      15.21377761
O       15.97177062      23.47692827      22.25463220
H       16.31272667      22.98416240      23.00106546
H       16.72861680      23.59836386      21.68133550
O       14.75292180      21.21419904      21.36420821
H       15.21143636      21.99385622      21.67746675
H       15.41183295      20.73326078      20.86344247
O       17.55115151      16.28279503      24.47836578
H       17.18335346      17.06347940      24.06425425
H       17.62909730      16.51597636      25.40345105
O       26.07708093      21.66161111      22.12055618
H       25.77675809      21.45000025      23.00444468
H       26.39819030      20.83047768      21.77078793
O       18.80133883      19.77607853      15.46053604
H       18.02939733      19.59379059      15.99636182
H       18.48159009      19.74037423      14.55902743
O       22.06340613      24.31427425      25.07163204
H       21.31126403      24.49206590      24.50691598
H       22.07185456      23.36190685      25.16732327
O       18.67093595      27.71811071      22.73260377
H       19.35637240      27.60048015      22.07490190
H       19.09551557      27.50242994      23.56293250
O       23.11497333      27.34343629      22.77922378
H       23.44192319      26.44545890      22.72470549
H       22.54135737      27.43657786      22.01861796
O       15.57021446      22.86427245      18.48773367
H       16.04228426      22.04451379      18.34152258
H       14.67680041      22.59251646      18.69795225
O       23.20333455      25.17678982      18.76167633
H       22.28190256      25.26950886      19.00374677
H       23.18346520      24.85208748      17.86145111
O       26.72293730      19.46744172      20.61317540
H       25.86785054      19.45708242      20.18311591
H       26.60064172      18.94095350      21.40316641
O       20.04385858      17.35646290      15.46531534
H       20.02465992      17.08347525      16.38256176
H       19.40996779      18.07188943      15.41452964
O       23.33284295      21.05025817      26.72532454
H       23.55625681      21.33705389      25.83984936
H       24.16357050      20.75637851      27.09916718
O       18.17510734      23.50026253      26.01398847
H       17.73057654      22.78994909      25.55130173
H       17.46635324      24.02227260      26.39002695
O       26.27515243      18.38119417      23.22924976
H       27.04049809      17.80637104      23.23674794
H       26.51865886      19.11244274      23.79688695
O       20.86936649      19.97951059      27.58705240
H       21.78780613      20.24714516      27.55430789
H       20.78360682      19.33009936      26.88909669
O       16.17407878      19.96785952      16.13812460
H       15.89321548      20.73983773      16.62944658
H       15.82901912      20.10613951      15.25605640
O       17.86134245      17.78622163      26.79372505
H       16.97670238      18.10281181      26.61092888
H       18.40921424      18.21011145      26.13313004
O       21.15612505      15.30177088      24.94546636
H       22.08937190      15.37354733      25.14579183
H       20.85379071      16.20779150      24.88259804
O       25.29413215      17.01847699      17.45669403
H       25.92528870      16.95776779      18.17376282
H       24.99370666      17.92706672      17.47769552
O       15.52506577      18.26449901      25.48549647
H       15.57345364      18.55947185      24.57616623
H       14.59246016      18.29613195      25.69875212
O       14.44805758      17.41268332      17.98197518
H       13.96236830      17.49004926      18.80316472
H       15.33343737      17.16580215      18.24915334
O       17.42470599      22.88141201      15.23403343
H       18.00008278      22.63928249      15.95966880
H       16.76732023      22.18619196      15.20674073
O       13.09996725      18.25510386      23.20021337
H       14.03208860      18.44494806      23.09372012
H       12.65860392      18.90613618      22.65469787
O       25.37883174      25.43220004      20.37424497
H       24.61121061      25.41333622      19.80272611
H       25.18827820      24.78523226      21.05347533
O       19.56609604      26.10928298      17.05443129
H       19.91289792      25.66097013      17.82577809
H       20.32245814      26.55933090      16.67812678
O       21.08605976      20.72750710      13.87535355
H       20.43801867      20.37850904      14.48729713
H       21.00082661      20.17794514      13.09628436
O       26.73381635      23.14750903      18.85616250
H       26.19643569      23.79781815      19.30843665
H       27.50873386      23.04978440      19.40950198
O       14.13816876      20.81758367      24.80197029
H       13.90755649      20.01771109      24.32947301
H       13.86619965      20.65015467      25.70431843
O       23.90038294      17.88361821      28.06681297
H       24.72497756      18.36112647      28.15770529
H       23.67518874      17.96778746      27.14029532
O       26.92913408      20.49611746      24.80969509
H       27.45361732      21.24560364      24.52788019
H       26.03571238      20.83532102      24.86419692
O       23.81066314      16.95394549      15.15425888
H       23.03721312      16.39472683      15.08158567
H       24.07604747      16.87856064      16.07083955
O       14.78993219      15.26848376      21.38292488
H       15.23021855      15.98453137      20.92504326
H       15.28915092      14.48764253      21.14355181
O       24.02114979      14.38253773      17.74926596
H       23.55220819      14.32802104      16.91658742
H       24.44115950      15.24250044      17.73230072
O       16.92329908      25.39422850      17.11302053
H       17.82756291      25.69493683      17.02294692
H       16.85088486      24.66397746      16.49843006
O       20.87750403      27.51416997      19.92137842
H       20.78304567      26.63781085      19.54814369
H       20.56879568      28.10289093      19.23265596
O       21.56724736      22.54591012      28.15710539
H       21.38422579      23.21717068      27.49972863
H       22.34043019      22.08951735      27.82525331
O       16.70322827      13.88012272      23.11728603
H       16.90875267      14.72784036      23.51145142
H       16.97686104      13.96736541      22.20418929
O       26.95933209      16.24585736      21.56759518
H       27.54736711      16.60345901      20.90233755
H       27.52357250      16.08102505      22.32303870
O       21.15252773      13.01919615      18.51380369
H       20.94691121      13.25701214      17.60970345
H       20.58780831      12.26883087      18.69894083
O       15.61473392      24.86530186      24.56619506
H       15.54787791      25.33268361      23.73353882
H       16.30965684      25.32044312      25.04175831
O       19.68334205      24.34636431      14.84555254
H       19.46845428      25.27838038      14.88298421
H       18.84206416      23.91151827      14.70629643
O       25.02142520      23.26944530      26.40504576
H       24.26030015      23.83723293      26.52561815
H       24.83251089      22.78188163      25.60328215
O       18.33080848      15.15855718      15.60839416
H       18.18771687      15.84353178      14.95527363
H       17.45505441      14.95096429      15.93426504
O       26.38973996      21.58508077      16.33432611
H       25.48416554      21.28186358      16.39933484
H       26.64210764      21.78235419      17.23633808
O       20.07438616      26.78901982      25.52263417
H       20.08530079      26.01062913      24.96565962
H       20.54100978      26.52361055      26.31513158
O       24.74991736      15.52097178      25.86052062
H       24.02782951      14.89684499      25.93323047
H       24.33485531      16.33653497      25.57978585
O       16.42297495      13.42189335      20.23328337
H       16.70896462      12.65569658      20.73066075
H       16.23186526      13.08272009      19.35882901
O       25.61350254      14.55062737      23.43584110
H       25.39209743      15.02073432      24.23971365
H       25.74793233      15.23905317      22.78451139
O       14.94351417      15.50931164      24.45923255
H       15.07196288      15.47720431      23.51123367
H       15.28003101      16.36720515      24.71808965
O       15.38845304      26.21955643      22.01930997
H       16.24991356      26.63085073      22.08969901
H       15.29379965      26.01863455      21.08823372
O       15.05157045      25.66706452      19.08184943
H       15.76027768      25.99639477      18.52912211
H       15.11150077      24.71469134      19.00684592
O       12.99674679      17.01956973      20.32623153
H       13.28902149      16.17786621      20.67600650
H       12.84954207      17.56304474      21.10031003
O       21.43273478      12.07122357      22.27007562
H       22.19747584      11.99902019      21.69894549
H       21.20503186      13.00072643      22.24988537
O       12.96734438      22.07481935      18.50310595
H       12.47181493      21.27785088      18.31462873
H       12.30625607      22.70785831      18.78320552
O       20.67970969      13.69740931      15.91587068
H       19.93671237      14.28011025      15.75887886
H       21.41944938      14.13209265      15.49152717
O       17.90810311      17.16065600      13.79241124
H       17.93549345      18.08135326      13.53203044
H       16.97808299      16.97584699      13.92333118
O       17.19026798      19.57994049      28.72520980
H       17.69439414      18.94716794      28.21365573
H       17.84318711      20.19884705      29.05213963
O       23.79146915      22.08191316      13.71771389
H       23.52604977      22.99436560      13.60275766
H       22.96782523      21.59649335      13.76472595
O       23.14449886      18.26712268      24.94818712
H       22.52260848      17.56931242      25.15445155
H       22.64568298      18.88179755      24.41005203
O       21.66124466      15.61724957      14.13956905
H       21.04190478      16.18282465      14.60084422
H       21.98275182      16.15398265      13.41515025
O       22.43967633      27.57783491      17.69562731
H       22.90206708      26.79032609      17.98243123
H       23.01335993      28.29982830      17.95222916
O       23.29756645      25.26079806      27.30307574
H       23.91656105      25.80284151      26.81392707
H       22.67443848      24.95415296      26.64435565
O       14.09175551      23.04016518      16.21129434
H       14.93076791      23.11532460      16.66587225
H       13.48949581      22.70121678      16.87358512
O       20.61680209      18.02640805      29.46321918
H       20.84994462      18.44052434      30.29411274
H       20.76553957      18.70636343      28.80612733
O       19.11547886      23.72894068      28.81254622
H       18.74795652      23.61466993      27.93613229
H       19.94318291      23.24869345      28.79017578
O       17.79059432      19.77437387      12.93530460
H       17.90608231      20.71881323      12.83076437
H       17.62298717      19.45355426      12.04918132
O       14.75953024      23.41745331      26.73148563
H       15.05924481      23.82401822      25.91840016
H       13.82594543      23.62455615      26.77343390
O       22.10171363      24.21053236      13.60766462
H       21.24702268      24.33602993      14.01995770
H       22.71910364      24.64038398      14.19951680
O       18.43937561      22.40892691      12.74393955
H       17.90860666      23.00066960      12.21068843
H       18.06925579      22.48153797      13.62369565
O       15.43080601      16.50852089      14.70680660
H       14.93315439      17.18349159      15.16831420
H       15.22167025      15.69733844      15.16992333
O       26.17865439      26.19023117      17.88402436
H       26.51398640      25.49408468      17.31907803
H       26.31311380      25.86314290      18.77349936
O       29.15865311      19.16827612      19.10570754
H       29.46131302      20.07241942      19.02112784
H       28.33097801      19.23580159      19.58176013
O       29.33787137      19.07746365      22.34851322
H       29.99540652      18.70216356      21.76282627
H       28.56255242      19.18955848      21.79847038
O       24.44980885      25.72983687      15.29055276
H       25.02525419      25.96483250      14.56262998
H       24.98058263      25.87733485      16.07333969
O       24.58955197      12.06599312      20.13455708
H       24.42225206      12.72868179      19.46441806
H       24.29244227      12.46921600      20.95025860
O       18.27384467      14.22504339      27.70522801
H       18.16490389      15.14635220      27.46952945
H       17.83037050      14.13916630      28.54914011
O       28.27760242      24.78252359      20.38648039
H       28.68465616      25.64747759      20.33755518
H       27.33730330      24.96055043      20.40586731
O       11.47057820      21.56497206      22.13332926
H       12.40302115      21.49340150      21.92922233
H       11.16712267      22.30811583      21.61190436
O       20.23656115      19.00688200      11.94760839
H       20.06838053      18.24716037      11.39014076
H       19.47280870      19.05651151      12.52245702
O       27.02231495      16.74928935      26.71248833
H       26.22311428      16.33033441      26.39313445
H       27.59979289      16.02117422      26.94183398
O       22.76295359      11.83429927      24.63075225
H       22.29916876      11.92601383      23.79845188
H       22.40139946      12.52632254      25.18447984
O       20.54381526      21.35430725      30.37770662
H       19.72191060      21.83063960      30.49523137
H       20.94719091      21.75770885      29.60907987
O       17.80766852      29.01952864      18.91819522
H       18.70625356      29.08971422      18.59593639
H       17.89548201      28.99759183      19.87110624
O       15.06716151      20.55616927      13.49542454
H       15.98084198      20.34480853      13.30373082
H       14.81884031      21.18451394      12.81737485
O       26.91555845      26.59917664      23.14599697
H       27.34108344      27.41245576      22.87445067
H       26.47690306      26.28257170      22.35632957
O       27.06688924      19.29962721      14.46493848
H       26.87461998      20.01765417      15.06801530
H       26.81173129      19.63366905      13.60497203
O       18.25855891      12.46966811      16.08640077
H       19.21398416      12.52048209      16.11490300
H       18.04612748      12.46668550      15.15307563
O       28.16220478      15.40232849      23.85670594
H       28.76566767      14.87128040      24.37637151
H       27.34220786      14.90856177      23.86230203
O       27.73214399      23.94762055      16.45582515
H       27.29386558      23.19060189      16.06715225
H       27.66752081      23.80374841      17.39994192
O       13.01107263      17.96892550      26.48092342
H       12.27832400      17.64077248      27.00210176
H       12.61897620      18.21284431      25.64247494
O       26.26833933      15.80711534      14.94687313
H       25.92144100      16.21751455      15.73900057
H       25.63294809      16.02594602      14.26524057
O       15.97565253      12.48000869      17.72108118
H       16.77618807      12.46610394      17.19650389
H       15.72749824      11.55932405      17.80469386
O       14.72326654      14.31666677      16.15372141
H       15.06813296      13.77506549      16.86362778
H       13.82836321      14.52382401      16.42291603
O       22.91080512      17.17271468      12.28650208
H       23.03547011      18.11151677      12.14742973
H       23.79823681      16.81658778      12.32975107
O       25.20465545      26.81400638      26.14163032
H       25.67038348      26.83708355      25.30568972
H       25.52883624      27.57825670      26.61813855
O       11.74625584      17.14124492      17.82425547
H       12.06157659      17.02873843      18.72099788
H       12.53927227      17.13339691      17.28825623
O       23.39542519      19.81866936      11.88313104
H       23.99035219      19.62991354      11.15741419
H       23.78393333      20.57588891      12.32120843
O       27.65365478      22.94176162      27.00703531
H       28.10338903      22.84138896      26.16805005
H       26.73620583      23.08121247      26.77235954
O       20.32687908      29.28087884      17.92639071
H       21.20623824      29.01505398      17.65751070
H       20.16465096      30.09332151      17.44696314
O       29.75600905      22.91961813      21.70647631
H       30.65264555      23.05532426      21.40011270
H       29.23553179      23.55444684      21.21420832
O       13.19176561      13.94283210      19.34437205
H       13.84177876      13.55601368      18.75778339
H       13.70850270      14.41559470      19.99683672
O       12.47021896      23.68403871      25.28703741
H       12.92125190      22.84531394      25.19038392
H       11.69032258      23.60177595      24.73819652
O       11.96285551      15.60323108      22.40553343
H       12.29566779      16.45011843      22.70260186
H       11.48766791      15.80175131      21.59867638
O       11.32783818      19.86251830      17.78359648
H       11.48526067      18.91835218      17.78300673
H       11.00000000      20.05170656      16.90441404
391
Lattice="15.781866235591567 0.0 0.0 0.0 15.781866235591567 0.0 0.0 0.0 15.781866235591567" Properties=species:S:1:pos:R:3 charge=0 spin=1 spin_multiplicity=1 metal=Lu geometry=box boundary=pbc pbc="T T T"
Lu       7.89093312       7.89093312       7.89093312
O        9.64300993       8.74392642       8.82272133
H       10.00355441       9.63606631       8.76449684
O        5.95638750       8.31040994       8.75532448
H        5.64571480       8.20137679       9.66135442
O        9.39649776       6.34606452       7.78022572
H        9.40335051       5.45928030       8.15819764
O        7.62676513      10.16750204       7.69741512
H        7.85399710      10.72235628       6.95126886
H        7.26494939      10.77247509       8.34497116
O        7.96080561       6.96930923       9.99704975
H        8.73287293       6.79814138      10.53635064
H        7.22433573       6.67094396      10.53073703
O        9.25787837       8.50739797       6.14696300
H        9.78653088       7.93838721       5.58751228
H        9.42563367       9.39047468       5.81792573
O        6.48208107       8.18098705       6.09621737
H        5.68494386       8.70940903       6.05653979
H        6.56146050       7.80033676       5.22155394
O        6.71828336       5.91952322       7.72230460
H        6.01864199       5.70492964       7.10530916
H        6.82050325       5.12975671       8.25339009
O       10.56508659       2.64200874       5.04367304
H       11.20787999       2.06256453       4.63465852
H       11.06270200       3.42564639       5.27717418
O        8.47723845       2.37970306       0.55523036
H        8.40024511       2.05829061       1.45356099
H        9.40391901       2.59854716       0.45723937
O        3.82787373       1.71588608       0.43325240
H        4.71009899       2.08723007       0.42950256
H        3.38874919       2.14793351       1.16587542
O        7.33363719       9.20993206      11.40582301
H        7.41780562       8.76872184      12.25109282
H        7.77802483       8.63021745      10.78720968
O        2.82826867       3.41759513       2.30508056
H        1.99632992       2.94746387       2.36063554
H        2.70223904       4.04513291       1.59336102
O       14.53838387       4.74122315       9.96940047
H       13.88942811       4.44149145       9.33280863
H       15.05386835       5.39491927       9.49697167
O       11.42953804       7.59466620      10.92222036
H       12.19798817       7.31574922      10.42430315
H       10.82728891       7.93762776      10.26198919
O        0.64123885       0.61917739       5.18564355
H       -0.22483118       0.21738338       5.25431742
H        0.72054431       0.86230321       4.26323782
O        1.47221931       1.06325682       2.17628563
H        0.53806364       0.93041115       2.01523578
H        1.88882731       0.88508212       1.33312290
O        9.50226501       7.07001175       3.01782878
H        9.08901523       7.72464193       3.58078152
H        9.14314665       7.24110267       2.14720042
O        5.66473680       1.76354837      11.34429174
H        6.55888680       1.80912932      11.00569168
H        5.71442953       2.17136388      12.20884306
O        3.01608045      10.74039599       7.80831735
H        3.94803930      10.58422196       7.65569291
H        2.99029367      11.29632233       8.58710665
O        5.17827544       6.56716302      13.33459180
H        4.99684124       5.62898417      13.27861031
H        5.18570238       6.86486165      12.42489284
O        7.69238639       7.58782326      13.55952084
H        6.80894238       7.22389153      13.61707263
H        8.02863624       7.54433928      14.45466162
O        0.66896157      11.01244484       9.16824550
H        0.41740762      10.09815616       9.03775163
H        0.30274296      11.47227575       8.41281760
O       11.21005249      14.98259821       6.97324671
H       11.99550946      14.85519921       6.44121411
H       11.50021778      14.82366736       7.87145433
O       15.62169559      12.58736088       7.11140851
H       15.26850292      12.28081632       6.27623355
H       16.10245947      13.38500890       6.89037555
O       10.32468580      12.12521363       8.12645585
H       10.53265454      12.95967250       7.70614735
H       11.08798177      11.93426143       8.67156901
O        5.88734730       0.13774063      13.51352948
H        5.67455995       0.25550426      12.58774057
H        6.31917111       0.95377547      13.76620947
O        9.83236520       4.55143471       1.47512100
H        9.73248801       5.38382804       1.93704927
H        8.96088443       4.36460998       1.12605134
O       12.36042347       1.14761394       9.91450235
H       12.82476440       1.84554920       9.45243556
H       12.68508121       1.19770597      10.81356853
O        8.00626832      13.46618602      15.27973239
H        8.50873141      13.95067262      14.62472445
H        7.47849474      14.13313482      15.71889771
O       14.97039165       7.37540558      12.89344231
H       15.72683303       6.91433478      12.53089301
H       14.63339707       6.78848784      13.57034264
O        3.29643681       8.82360886       2.50441548
H        3.63732546       7.94640291       2.67916238
H        2.38415637       8.68073779       2.25229625
O        2.21449512       9.19372362       5.71937955
H        2.65633323       9.57269266       4.95951549
H        2.49985994       9.73328643       6.45671986
O        9.19785280      11.30513785       5.79062024
H        9.45438842      11.98017501       5.16233197
H        9.61378286      11.57028381       6.61094435
O        9.98157219      11.69498198       0.10795861
H        9.32188349      12.35690365      -0.09917022
H       10.77173362      12.19750531       0.30631957
O        0.43607106      12.64483773       1.96988012
H        0.05472845      13.51024845       2.11777852
H       -0.31766373      12.06994566       1.83715935
O        4.22460014       6.34054320       3.11385361
H        3.42929229       5.82452772       3.24593422
H        4.42086155       6.24468454       2.18190704
O       12.11911360       5.43148623       0.29184604
H       11.35715129       5.25902468       0.84493038
H       11.75799188       5.53582245      -0.58845896
O        7.02326706      10.05889283       4.20439997
H        7.35945849      10.08114409       3.30845798
H        7.74782009      10.38086658       4.74067196
O        3.95108782      14.80880742       0.82414066
H        4.83998067      15.13545382       0.68484436
H        3.83559694      14.82498522       1.77421012
O        1.88785028       5.29590129       4.03391217
H        0.93819285       5.31297465       4.15261815
H        2.05455299       4.48787041       3.54859975
O        6.73514757       6.17221638      15.67569613
H        7.43958608       5.60280971      15.36622196
H        6.05042369       6.08926965      15.01199070
O        1.27641311       2.93142301       7.31745106
H        1.17848616       2.50310956       6.46704543
H        1.65249018       3.78758891       7.11305484
O        6.68818562       9.80972197      15.64851111
H        5.98237367       9.51424292      15.07339941
H        7.46538748       9.81804408      15.08983423
O        4.30868915       3.08588309       4.56266087
H        3.72799168       2.73758854       5.23920591
H        3.77020455       3.10654854       3.77156093
O        5.49731019      11.78214066       8.20412853
H        6.15877879      12.20195940       7.65418003
H        4.73138624      12.35215260       8.13572723
O       15.43771627       8.60403479       5.00944636
H       14.98532829       9.43682432       4.87513870
H       16.34257847       8.85061230       5.20090332
O       12.17288749      12.65186220       3.82705678
H       11.80509898      12.48106448       4.69411594
H       11.41290266      12.68346009       3.24597463
O        5.39710719       5.43548089       5.39479731
H        4.88313130       5.95538202       4.77692722
H        5.28838497       4.53229010       5.09704286
O       14.33374175       5.27656104      14.50214608
H       13.83344414       5.33740913      15.31592225
H       13.79438690       4.73172386      13.92901379
O        3.22784127       8.09897662       8.53331868
H        4.15869552       7.94709093       8.37000018
H        3.11083121       9.03936805       8.39839488
O       13.54077991      10.77198840       1.68547707
H       13.33717425      11.08942473       0.80569826
H       13.61308276       9.82258646       1.58729309
O        2.87797233       4.31515445      15.51980637
H        3.36659519       3.49216633      15.53284808
H        3.49926292       4.96825275      15.84181949
O       15.50251070      13.52968182      13.34572826
H       15.57224694      14.44075527      13.06057238
H       16.23767626      13.40940384      13.94680782
O        8.83354723       7.79908004       0.48412310
H        8.09064757       7.19959678       0.55449182
H        9.54336517       7.26141985       0.13296523
O        8.37260259       4.59272746       5.68505281
H        9.01703048       3.97107378       5.34668726
H        8.86138886       5.12927495       6.30910138
O       15.76340189       9.94458514      12.48252798
H       15.44133917       9.08359838      12.74937859
H       16.60635581       9.76677252      12.06534313
O        8.78191733       4.63880948      14.74953296
H        9.51856217       4.10335087      15.04427063
H        9.14500663       5.18248878      14.05038290
O        0.61609994       8.55455658       2.12800014
H        0.49053077       9.26377988       2.75844962
H       -0.26247923       8.20289895       1.98423854
O        2.18918177       5.42638963       6.73401902
H        2.05494976       5.38303394       5.78726991
H        3.14007625       5.41056742       6.84256019
O       14.53913970      11.70512492       4.77728515
H       15.23938119      12.09368497       4.25296198
H       13.73319996      12.05968958       4.40181628
O        0.90774562       3.07716277      10.00840701
H        0.19492236       3.71482694       9.96968694
H        1.13341500       2.91358108       9.09268533
O        9.33454647      13.25000461       2.24376291
H        8.76645378      13.41882686       1.49209703
H        9.01784096      13.84594175       2.92257686
O        2.85473075      14.25976780      13.33645135
H        3.28295582      15.03917863      13.69053312
H        2.41303961      13.86592483      14.08880000
O       12.60614444       9.36616655       6.64965507
H       12.39007946       9.13710817       5.74573029
H       13.34281270       8.79684417       6.87196959
O        5.78588835      11.16153135       2.04766996
H        6.05313660      10.65173196       1.28287274
H        5.01936973      11.65304390       1.75254886
O        1.17405947       6.19208339       9.13851761
H        1.97780661       6.04302315       9.63651702
H        1.36692054       5.85290521       8.26444976
O       13.75707256       3.25205510       3.39703474
H       12.98402493       3.63154130       2.97915984
H       13.46222561       2.39999661       3.71842770
O       14.72776314       1.07949122       1.16840585
H       14.25803533       0.36899239       1.60518843
H       15.18465177       0.65451752       0.44253949
O       12.97463424       3.24468582       8.29479823
H       12.02936647       3.35365409       8.39884914
H       13.06789874       2.67400006       7.53200643
O       12.66161313       3.70610897      13.04061802
H       11.91836783       4.02240877      13.55420608
H       12.47859434       3.99921835      12.14796867
O       15.27682913       2.71141918      12.30376687
H       14.41974302       3.03027276      12.58655237
H       15.10803123       2.28021827      11.46602892
O        8.93318261       9.95051574      14.08535334
H        9.75381500       9.50586271      13.87303751
H        9.18916402      10.65570029      14.67984481
O        9.89414061       0.49482139      14.98136510
H        9.87586549       0.60209998      14.03037132
H        9.08964596       0.91478358      15.28575294
O       11.96881761       1.32039390       1.12090520
H       12.84230732       1.53290438       0.79213953
H       11.48502920       1.03111898       0.34727697
O       10.95032165       3.02200699      15.04116331
H       11.62123440       3.59153129      15.41766031
H       11.44254396       2.31828592      14.61840368
O       13.30342265      14.54666692       2.23645771
H       12.87159742      13.88046514       2.77118568
H       12.87037556      14.48858939       1.38479519
O        6.85982430       7.02882784       3.66142035
H        7.24710220       7.44201266       2.88971706
H        5.94343653       6.88768029       3.42363336
O        9.34934149      14.19033875       9.63493057
H        8.93821121      14.61250262       8.88062202
H        9.54031588      13.30078334       9.33752210
O        1.15607980       0.21449488      12.11283843
H        1.14010132      -0.65478624      11.71243005
H        1.79664825       0.70446922      11.59725231
O       12.35089564       1.03496533      12.63214906
H       12.44653429       1.94835647      12.90196700
H       11.40811214       0.87264406      12.66444343
O       11.99590646       8.13836926       3.22567900
H       11.80242994       8.96412790       2.78192080
H       11.19910432       7.61807580       3.12256303
O       14.98012575       8.80548191       9.77219081
H       14.39929193       9.41182947       9.31261866
H       15.14566823       9.22509235      10.61643876
O        3.90408558       5.76914493       9.76335039
H        4.43902319       5.10411288      10.19671626
H        4.15141142       6.59041824      10.18828792
O        1.55052394       0.47811952       8.50791545
H        1.55100304       1.27437649       7.97668437
H        1.89358162       0.75603601       9.35721262
O        5.80255310       3.57803129       0.61061245
H        6.73629927       3.37277961       0.65774707
H        5.77185209       4.49453204       0.33617547
O        4.74180054       8.17611761      11.18537119
H        3.95195275       8.17657048      11.72608562
H        5.30457215       8.84107640      11.58204456
O       12.49018129       0.87152128       3.75262618
H       12.09974375       1.22835114       2.95483998
H       13.08327255       0.18654985       3.44393745
O        4.44279621       8.97851200      14.35788562
H        4.77515044       8.10918916      14.13416639
H        3.81505359       9.18125823      13.66429712
O        1.06334307      10.68893043       3.75366769
H        1.14961727      11.05325589       4.63460785
H        1.00090217      11.45444964       3.18242929
O        6.55262086      12.52819017      13.18081245
H        6.80523685      12.80783747      14.06070698
H        7.38181305      12.43075927      12.71264648
O       10.20922434       3.27143215       8.18305227
H        9.29161528       3.46709885       8.37263072
H       10.22071303       3.05451463       7.25082556
O        9.64524347       5.98558212      12.54970643
H        9.03361755       6.69567461      12.74442220
H       10.28907984       6.37828221      11.96022088
O       12.83321931       5.80932571       7.39981443
H       13.04632121       4.89097541       7.56550132
H       13.67883364       6.25770439       7.41098564
O        3.04409203       1.52336798      10.65659007
H        3.94804878       1.78104664      10.83740969
H        2.59655566       2.34466980      10.45310452
O       13.35752726      11.39260108       9.53489610
H       13.72564715      12.27033489       9.63639955
H       12.71465376      11.31893782      10.24024654
O        1.17693470      13.24887762      11.06564734
H        1.02190277      12.56573425      10.41333447
H        0.43697457      13.17731153      11.66861430
O        6.53685475       2.75402727      13.90647379
H        5.83438866       2.98946392      14.51256191
H        7.28283842       3.28473922      14.18591076
O        5.73268769       1.45154319       2.51671149
H        5.26813410       2.00240233       3.14677181
H        6.65929860       1.60229838       2.70351869
O        3.59021816       2.28323567      13.56558390
H        3.91699778       3.18292516      13.56798232
H        3.79920822       1.94967380      14.43810409
O       13.66566089      15.36056868       5.83715666
H       13.17749037      16.06938536       5.41822910
H       13.80786291      15.66429110       6.73368503
O        9.05987977      12.85275526      12.10817049
H        9.46594593      11.99564316      11.97893824
H        9.23523854      13.32643854      11.29508668
O        8.44037359       0.65086673       7.39714636
H        8.69370768       1.53584937       7.65955714
H        9.26935485       0.18115112       7.30555404
O       13.80718478       6.45198517       4.68014443
H       14.44931975       7.09322934       4.98461189
H       13.13804371       6.97401166       4.23745896
O       13.90355326       7.84305384       1.30941822
H       13.40475072       7.94700797       2.11974001
H       13.42919051       7.17086043       0.82016589
O       15.11302570       7.29133892       7.46706666
H       14.74975039       7.88023508       8.12847742
H       15.28170611       7.85408178       6.71135558
O        6.66255216       0.01868457       0.33613689
H        7.20180196       0.57792167      -0.22305481
H        6.37472794       0.59411076       1.04484964
O        6.11351831       0.47941577       5.02954435
H        6.36567905       1.30085133       4.60777378
H        6.86373098      -0.09963532       4.89496120
O        0.05901338       4.58384138       1.37721463
H       -0.35968998       4.74405531       0.53148959
H       -0.66852531       4.42945139       1.97977834
O        8.81123751      14.67409335       4.77221839
H        8.68029858      15.13612521       5.60023614
H        9.32208672      15.28121292       4.23680197
O       14.85239134      13.90712520       9.47563169
H       15.60880741      14.06559662      10.04039127
H       15.21519590      13.46865109       8.70599207
O        2.65597059       9.46291290      12.36514551
H        2.57067523      10.33318243      12.75448789
H        2.74016417       9.62738496      11.42594786
O        5.72601901      11.33960165      10.87812084
H        6.18480181      10.52058434      11.06509903
H        5.72378768      11.40075129       9.92287868
O        5.27722261      13.01342677       4.91601001
H        5.63708437      13.87972901       4.72561100
H        4.64148412      13.16600254       5.61514451
O        3.12706509      13.42870120       7.40944456
H        2.31641966      13.83057561       7.09706213
H        3.10373197      12.53804802       7.05955269
O        4.10759092       6.64536788       0.41353270
H        4.66759610       7.41263186       0.53156666
H        3.23702767       7.00693829       0.24734512
O        4.34620947      15.04853720       9.87543073
H        4.01405371      14.59294358       9.10190707
H        3.73320427      15.77128351      10.00994549
O        8.32133105       2.08415521      10.85632197
H        8.65717271       2.96097423      11.04241504
H        8.94559268       1.49358099      11.27792766
O        7.54435405       3.50885882       8.67345362
H        6.89394347       3.10918455       8.09599505
H        7.57599290       2.93078161       9.43572493
O        4.55501588       1.76514141       7.70254103
H        4.61711463       1.08307890       8.37124599
H        5.02821526       1.40815655       6.95095870
O       11.10928043      10.58676985      10.98242836
H       11.39091268       9.67239416      11.01127670
H       10.26081856      10.56270696      10.53997466
O       11.34937427       9.05220388      13.21733639
H       11.21383485       8.43647325      12.49710261
H       12.03800252       9.63909494      12.90495544
O        8.33455109       2.12366973       3.28201852
H        8.00485392       3.00261312       3.09496199
H        9.06829114       2.26486829       3.88028296
O        1.00313837       5.24107688      11.68110989
H        0.16457792       5.19492866      11.22185119
H        1.13349335       4.36002871      12.03181424
O        1.84342830      12.85332785      15.43349751
H        2.63052300      12.32815564      15.57809325
H        1.33587078      12.75173021      16.23866527
O        2.92143895      14.85991732       3.34123691
H        2.24206111      14.22952997       3.58058890
H        2.44547562      15.58054807       2.92846328
O        1.68729361       7.70955444      15.55680752
H        2.17094021       8.43710286      15.16566676
H        1.34128309       8.06414127      16.37581713
O        3.90531120      11.76098083      13.11118620
H        3.67141333      12.68562718      13.03023705
H        4.44541292      11.58178555      12.34150378
O       12.64117535      12.80096104      13.36903096
H       13.56802939      13.03892277      13.34562925
H       12.50115167      12.46818229      14.25553167
O        9.76618711       0.26723986      12.27392489
H       10.19926640      -0.25508367      11.59875654
H        8.92165885      -0.16360221      12.40575424
O        8.51086802      10.08190762       1.92735937
H        9.02551061      10.69257300       1.39966377
H        8.67097967       9.22645277       1.52887087
391
Properties=species:S:1:pos:R:3 charge=0 spin=1 spin_multiplicity=1 metal=Lu geometry=box boundary=non-pbc pbc="F F F"
Lu       7.89093312       7.89093312       7.89093312
O        9.64300993       8.74392642       8.82272133
H       10.00355441       9.63606631       8.76449684
O        5.95638750       8.31040994       8.75532448
H        5.64571480       8.20137679       9.66135442
O        9.39649776       6.34606452       7.78022572
H        9.40335051       5.45928030       8.15819764
O        7.62676513      10.16750204       7.69741512
H        7.85399710      10.72235628       6.95126886
H        7.26494939      10.77247509       8.34497116
O        7.96080561       6.96930923       9.99704975
H        8.73287293       6.79814138      10.53635064
H        7.22433573       6.67094396      10.53073703
O        9.25787837       8.50739797       6.14696300
H        9.78653088       7.93838721       5.58751228
H        9.42563367       9.39047468       5.81792573
O        6.48208107       8.18098705       6.09621737
H        5.68494386       8.70940903       6.05653979
H        6.56146050       7.80033676       5.22155394
O        6.71828336       5.91952322       7.72230460
H        6.01864199       5.70492964       7.10530916
H        6.82050325       5.12975671       8.25339009
O       10.56508659       2.64200874       5.04367304
H       11.20787999       2.06256453       4.63465852
H       11.06270200       3.42564639       5.27717418
O        8.47723845       2.37970306       0.55523036
H        8.40024511       2.05829061       1.45356099
H        9.40391901       2.59854716       0.45723937
O        3.82787373       1.71588608       0.43325240
H        4.71009899       2.08723007       0.42950256
H        3.38874919       2.14793351       1.16587542
O        7.33363719       9.20993206      11.40582301
H        7.41780562       8.76872184      12.25109282
H        7.77802483       8.63021745      10.78720968
O        2.82826867       3.41759513       2.30508056
H        1.99632992       2.94746387       2.36063554
H        2.70223904       4.04513291       1.59336102
O       14.53838387       4.74122315       9.96940047
H       13.88942811       4.44149145       9.33280863
H       15.05386835       5.39491927       9.49697167
O       11.42953804       7.59466620      10.92222036
H       12.19798817       7.31574922      10.42430315
H       10.82728891       7.93762776      10.26198919
O        0.64123885       0.61917739       5.18564355
H       -0.22483118       0.21738338       5.25431742
H        0.72054431       0.86230321       4.26323782
O        1.47221931       1.06325682       2.17628563
H        0.53806364       0.93041115       2.01523578
H        1.88882731       0.88508212       1.33312290
O        9.50226501       7.07001175       3.01782878
H        9.08901523       7.72464193       3.58078152
H        9.14314665       7.24110267       2.14720042
O        5.66473680       1.76354837      11.34429174
H        6.55888680       1.80912932      11.00569168
H        5.71442953       2.17136388      12.20884306
O        3.01608045      10.74039599       7.80831735
H        3.94803930      10.58422196       7.65569291
H        2.99029367      11.29632233       8.58710665
O        5.17827544       6.56716302      13.33459180
H        4.99684124       5.62898417      13.27861031
H        5.18570238       6.86486165      12.42489284
O        7.69238639       7.58782326      13.55952084
H        6.80894238       7.22389153      13.61707263
H        8.02863624       7.54433928      14.45466162
O        0.66896157      11.01244484       9.16824550
H        0.41740762      10.09815616       9.03775163
H        0.30274296      11.47227575       8.41281760
O       11.21005249      14.98259821       6.97324671
H       11.99550946      14.85519921       6.44121411
H       11.50021778      14.82366736       7.87145433
O       15.62169559      12.58736088       7.11140851
H       15.26850292      12.28081632       6.27623355
H       16.10245947      13.38500890       6.89037555
O       10.32468580      12.12521363       8.12645585
H       10.53265454      12.95967250       7.70614735
H       11.08798177      11.93426143       8.67156901
O        5.88734730       0.13774063      13.51352948
H        5.67455995       0.25550426      12.58774057
H        6.31917111       0.95377547      13.76620947
O        9.83236520       4.55143471       1.47512100
H        9.73248801       5.38382804       1.93704927
H        8.96088443       4.36460998       1.12605134
O       12.36042347       1.14761394       9.91450235
H       12.82476440       1.84554920       9.45243556
H       12.68508121       1.19770597      10.81356853
O        8.00626832      13.46618602      15.27973239
H        8.50873141      13.95067262      14.62472445
H        7.47849474      14.13313482      15.71889771
O       14.97039165       7.37540558      12.89344231
H       15.72683303       6.91433478      12.53089301
H       14.63339707       6.78848784      13.57034264
O        3.29643681       8.82360886       2.50441548
H        3.63732546       7.94640291       2.67916238
H        2.38415637       8.68073779       2.25229625
O        2.21449512       9.19372362       5.71937955
H        2.65633323       9.57269266       4.95951549
H        2.49985994       9.73328643       6.45671986
O        9.19785280      11.30513785       5.79062024
H        9.45438842      11.98017501       5.16233197
H        9.61378286      11.57028381       6.61094435
O        9.98157219      11.69498198       0.10795861
H        9.32188349      12.35690365      -0.09917022
H       10.77173362      12.19750531       0.30631957
O        0.43607106      12.64483773       1.96988012
H        0.05472845      13.51024845       2.11777852
H       -0.31766373      12.06994566       1.83715935
O        4.22460014       6.34054320       3.11385361
H        3.42929229       5.82452772       3.24593422
H        4.42086155       6.24468454       2.18190704
O       12.11911360       5.43148623       0.29184604
H       11.35715129       5.25902468       0.84493038
H       11.75799188       5.53582245      -0.58845896
O        7.02326706      10.05889283       4.20439997
H        7.35945849      10.08114409       3.30845798
H        7.74782009      10.38086658       4.74067196
O        3.95108782      14.80880742       0.82414066
H        4.83998067      15.13545382       0.68484436
H        3.83559694      14.82498522       1.77421012
O        1.88785028       5.29590129       4.03391217
H        0.93819285       5.31297465       4.15261815
H        2.05455299       4.48787041       3.54859975
O        6.73514757       6.17221638      15.67569613
H        7.43958608       5.60280971      15.36622196
H        6.05042369       6.08926965      15.01199070
O        1.27641311       2.93142301       7.31745106
H        1.17848616       2.50310956       6.46704543
H        1.65249018       3.78758891       7.11305484
O        6.68818562       9.80972197      15.64851111
H        5.98237367       9.51424292      15.07339941
H        7.46538748       9.81804408      15.08983423
O        4.30868915       3.08588309       4.56266087
H        3.72799168       2.73758854       5.23920591
H        3.77020455       3.10654854       3.77156093
O        5.49731019      11.78214066       8.20412853
H        6.15877879      12.20195940       7.65418003
H        4.73138624      12.35215260       8.13572723
O       15.43771627       8.60403479       5.00944636
H       14.98532829       9.43682432       4.87513870
H       16.34257847       8.85061230       5.20090332
O       12.17288749      12.65186220       3.82705678
H       11.80509898      12.48106448       4.69411594
H       11.41290266      12.68346009       3.24597463
O        5.39710719       5.43548089       5.39479731
H        4.88313130       5.95538202       4.77692722
H        5.28838497       4.53229010       5.09704286
O       14.33374175       5.27656104      14.50214608
H       13.83344414       5.33740913      15.31592225
H       13.79438690       4.73172386      13.92901379
O        3.22784127       8.09897662       8.53331868
H        4.15869552       7.94709093       8.37000018
H        3.11083121       9.03936805       8.39839488
O       13.54077991      10.77198840       1.68547707
H       13.33717425      11.08942473       0.80569826
H       13.61308276       9.82258646       1.58729309
O        2.87797233       4.31515445      15.51980637
H        3.36659519       3.49216633      15.53284808
H        3.49926292       4.96825275      15.84181949
O       15.50251070      13.52968182      13.34572826
H       15.57224694      14.44075527      13.06057238
H       16.23767626      13.40940384      13.94680782
O        8.83354723       7.79908004       0.48412310
H        8.09064757       7.19959678       0.55449182
H        9.54336517       7.26141985       0.13296523
O        8.37260259       4.59272746       5.68505281
H        9.01703048       3.97107378       5.34668726
H        8.86138886       5.12927495       6.30910138
O       15.76340189       9.94458514      12.48252798
H       15.44133917       9.08359838      12.74937859
H       16.60635581       9.76677252      12.06534313
O        8.78191733       4.63880948      14.74953296
H        9.51856217       4.10335087      15.04427063
H        9.14500663       5.18248878      14.05038290
O        0.61609994       8.55455658       2.12800014
H        0.49053077       9.26377988       2.75844962
H       -0.26247923       8.20289895       1.98423854
O        2.18918177       5.42638963       6.73401902
H        2.05494976       5.38303394       5.78726991
H        3.14007625       5.41056742       6.84256019
O       14.53913970      11.70512492       4.77728515
H       15.23938119      12.09368497       4.25296198
H       13.73319996      12.05968958       4.40181628
O        0.90774562       3.07716277      10.00840701
H        0.19492236       3.71482694       9.96968694
H        1.13341500       2.91358108       9.09268533
O        9.33454647      13.25000461       2.24376291
H        8.76645378      13.41882686       1.49209703
H        9.01784096      13.84594175       2.92257686
O        2.85473075      14.25976780      13.33645135
H        3.28295582      15.03917863      13.69053312
H        2.41303961      13.86592483      14.08880000
O       12.60614444       9.36616655       6.64965507
H       12.39007946       9.13710817       5.74573029
H       13.34281270       8.79684417       6.87196959
O        5.78588835      11.16153135       2.04766996
H        6.05313660      10.65173196       1.28287274
H        5.01936973      11.65304390       1.75254886
O        1.17405947       6.19208339       9.13851761
H        1.97780661       6.04302315       9.63651702
H        1.36692054       5.85290521       8.26444976
O       13.75707256       3.25205510       3.39703474
H       12.98402493       3.63154130       2.97915984
H       13.46222561       2.39999661       3.71842770
O       14.72776314       1.07949122       1.16840585
H       14.25803533       0.36899239       1.60518843
H       15.18465177       0.65451752       0.44253949
O       12.97463424       3.24468582       8.29479823
H       12.02936647       3.35365409       8.39884914
H       13.06789874       2.67400006       7.53200643
O       12.66161313       3.70610897      13.04061802
H       11.91836783       4.02240877      13.55420608
H       12.47859434       3.99921835      12.14796867
O       15.27682913       2.71141918      12.30376687
H       14.41974302       3.03027276      12.58655237
H       15.10803123       2.28021827      11.46602892
O        8.93318261       9.95051574      14.08535334
H        9.75381500       9.50586271      13.87303751
H        9.18916402      10.65570029      14.67984481
O        9.89414061       0.49482139      14.98136510
H        9.87586549       0.60209998      14.03037132
H        9.08964596       0.91478358      15.28575294
O       11.96881761       1.32039390       1.12090520
H       12.84230732       1.53290438       0.79213953
H       11.48502920       1.03111898       0.34727697
O       10.95032165       3.02200699      15.04116331
H       11.62123440       3.59153129      15.41766031
H       11.44254396       2.31828592      14.61840368
O       13.30342265      14.54666692       2.23645771
H       12.87159742      13.88046514       2.77118568
H       12.87037556      14.48858939       1.38479519
O        6.85982430       7.02882784       3.66142035
H        7.24710220       7.44201266       2.88971706
H        5.94343653       6.88768029       3.42363336
O        9.34934149      14.19033875       9.63493057
H        8.93821121      14.61250262       8.88062202
H        9.54031588      13.30078334       9.33752210
O        1.15607980       0.21449488      12.11283843
H        1.14010132      -0.65478624      11.71243005
H        1.79664825       0.70446922      11.59725231
O       12.35089564       1.03496533      12.63214906
H       12.44653429       1.94835647      12.90196700
H       11.40811214       0.87264406      12.66444343
O       11.99590646       8.13836926       3.22567900
H       11.80242994       8.96412790       2.78192080
H       11.19910432       7.61807580       3.12256303
O       14.98012575       8.80548191       9.77219081
H       14.39929193       9.41182947       9.31261866
H       15.14566823       9.22509235      10.61643876
O        3.90408558       5.76914493       9.76335039
H        4.43902319       5.10411288      10.19671626
H        4.15141142       6.59041824      10.18828792
O        1.55052394       0.47811952       8.50791545
H        1.55100304       1.27437649       7.97668437
H        1.89358162       0.75603601       9.35721262
O        5.80255310       3.57803129       0.61061245
H        6.73629927       3.37277961       0.65774707
H        5.77185209       4.49453204       0.33617547
O        4.74180054       8.17611761      11.18537119
H        3.95195275       8.17657048      11.72608562
H        5.30457215       8.84107640      11.58204456
O       12.49018129       0.87152128       3.75262618
H       12.09974375       1.22835114       2.95483998
H       13.08327255       0.18654985       3.44393745
O        4.44279621       8.97851200      14.35788562
H        4.77515044       8.10918916      14.13416639
H        3.81505359       9.18125823      13.66429712
O        1.06334307      10.68893043       3.75366769
H        1.14961727      11.05325589       4.63460785
H        1.00090217      11.45444964       3.18242929
O        6.55262086      12.52819017      13.18081245
H        6.80523685      12.80783747      14.06070698
H        7.38181305      12.43075927      12.71264648
O       10.20922434       3.27143215       8.18305227
H        9.29161528       3.46709885       8.37263072
H       10.22071303       3.05451463       7.25082556
O        9.64524347       5.98558212      12.54970643
H        9.03361755       6.69567461      12.74442220
H       10.28907984       6.37828221      11.96022088
O       12.83321931       5.80932571       7.39981443
H       13.04632121       4.89097541       7.56550132
H       13.67883364       6.25770439       7.41098564
O        3.04409203       1.52336798      10.65659007
H        3.94804878       1.78104664      10.83740969
H        2.59655566       2.34466980      10.45310452
O       13.35752726      11.39260108       9.53489610
H       13.72564715      12.27033489       9.63639955
H       12.71465376      11.31893782      10.24024654
O        1.17693470      13.24887762      11.06564734
H        1.02190277      12.56573425      10.41333447
H        0.43697457      13.17731153      11.66861430
O        6.53685475       2.75402727      13.90647379
H        5.83438866       2.98946392      14.51256191
H        7.28283842       3.28473922      14.18591076
O        5.73268769       1.45154319       2.51671149
H        5.26813410       2.00240233       3.14677181
H        6.65929860       1.60229838       2.70351869
O        3.59021816       2.28323567      13.56558390
H        3.91699778       3.18292516      13.56798232
H        3.79920822       1.94967380      14.43810409
O       13.66566089      15.36056868       5.83715666
H       13.17749037      16.06938536       5.41822910
H       13.80786291      15.66429110       6.73368503
O        9.05987977      12.85275526      12.10817049
H        9.46594593      11.99564316      11.97893824
H        9.23523854      13.32643854      11.29508668
O        8.44037359       0.65086673       7.39714636
H        8.69370768       1.53584937       7.65955714
H        9.26935485       0.18115112       7.30555404
O       13.80718478       6.45198517       4.68014443
H       14.44931975       7.09322934       4.98461189
H       13.13804371       6.97401166       4.23745896
O       13.90355326       7.84305384       1.30941822
H       13.40475072       7.94700797       2.11974001
H       13.42919051       7.17086043       0.82016589
O       15.11302570       7.29133892       7.46706666
H       14.74975039       7.88023508       8.12847742
H       15.28170611       7.85408178       6.71135558
O        6.66255216       0.01868457       0.33613689
H        7.20180196       0.57792167      -0.22305481
H        6.37472794       0.59411076       1.04484964
O        6.11351831       0.47941577       5.02954435
H        6.36567905       1.30085133       4.60777378
H        6.86373098      -0.09963532       4.89496120
O        0.05901338       4.58384138       1.37721463
H       -0.35968998       4.74405531       0.53148959
H       -0.66852531       4.42945139       1.97977834
O        8.81123751      14.67409335       4.77221839
H        8.68029858      15.13612521       5.60023614
H        9.32208672      15.28121292       4.23680197
O       14.85239134      13.90712520       9.47563169
H       15.60880741      14.06559662      10.04039127
H       15.21519590      13.46865109       8.70599207
O        2.65597059       9.46291290      12.36514551
H        2.57067523      10.33318243      12.75448789
H        2.74016417       9.62738496      11.42594786
O        5.72601901      11.33960165      10.87812084
H        6.18480181      10.52058434      11.06509903
H        5.72378768      11.40075129       9.92287868
O        5.27722261      13.01342677       4.91601001
H        5.63708437      13.87972901       4.72561100
H        4.64148412      13.16600254       5.61514451
O        3.12706509      13.42870120       7.40944456
H        2.31641966      13.83057561       7.09706213
H        3.10373197      12.53804802       7.05955269
O        4.10759092       6.64536788       0.41353270
H        4.66759610       7.41263186       0.53156666
H        3.23702767       7.00693829       0.24734512
O        4.34620947      15.04853720       9.87543073
H        4.01405371      14.59294358       9.10190707
H        3.73320427      15.77128351      10.00994549
O        8.32133105       2.08415521      10.85632197
H        8.65717271       2.96097423      11.04241504
H        8.94559268       1.49358099      11.27792766
O        7.54435405       3.50885882       8.67345362
H        6.89394347       3.10918455       8.09599505
H        7.57599290       2.93078161       9.43572493
O        4.55501588       1.76514141       7.70254103
H        4.61711463       1.08307890       8.37124599
H        5.02821526       1.40815655       6.95095870
O       11.10928043      10.58676985      10.98242836
H       11.39091268       9.67239416      11.01127670
H       10.26081856      10.56270696      10.53997466
O       11.34937427       9.05220388      13.21733639
H       11.21383485       8.43647325      12.49710261
H       12.03800252       9.63909494      12.90495544
O        8.33455109       2.12366973       3.28201852
H        8.00485392       3.00261312       3.09496199
H        9.06829114       2.26486829       3.88028296
O        1.00313837       5.24107688      11.68110989
H        0.16457792       5.19492866      11.22185119
H        1.13349335       4.36002871      12.03181424
O        1.84342830      12.85332785      15.43349751
H        2.63052300      12.32815564      15.57809325
H        1.33587078      12.75173021      16.23866527
O        2.92143895      14.85991732       3.34123691
H        2.24206111      14.22952997       3.58058890
H        2.44547562      15.58054807       2.92846328
O        1.68729361       7.70955444      15.55680752
H        2.17094021       8.43710286      15.16566676
H        1.34128309       8.06414127      16.37581713
O        3.90531120      11.76098083      13.11118620
H        3.67141333      12.68562718      13.03023705
H        4.44541292      11.58178555      12.34150378
O       12.64117535      12.80096104      13.36903096
H       13.56802939      13.03892277      13.34562925
H       12.50115167      12.46818229      14.25553167
O        9.76618711       0.26723986      12.27392489
H       10.19926640      -0.25508367      11.59875654
H        8.92165885      -0.16360221      12.40575424
O        8.51086802      10.08190762       1.92735937
H        9.02551061      10.69257300       1.39966377
H        8.67097967       9.22645277       1.52887087
391
Properties=species:S:1:pos:R:3 charge=0 spin=1 spin_multiplicity=1 metal=Lu geometry=droplet boundary=non-pbc droplet_radius=9.631 pbc="F F F"
Lu       0.00000000       0.00000000       0.00000000
O       -1.19306372      -1.78009151      -0.27105934
H       -1.28060194      -2.55880841       0.29039685
O        2.07385685      -0.04765150      -0.60203578
H        2.84003790      -0.42618205      -0.15596714
O       -1.25648193      -0.10853937       1.75358842
H       -2.00161800       0.44339253       2.01710203
O       -0.04146892      -0.35584427      -2.27192764
H        0.66775316      -0.67959060      -2.82728715
H       -0.77181788      -0.21338737      -2.87403085
O        0.97935050      -1.59036357       1.34224301
H        0.69455131      -1.88214860       2.20825847
H        1.76309238      -2.10880971       1.16005051
O       -2.05974891       0.75736264      -0.68835764
H       -2.70592742       1.24418210      -0.17679926
H       -2.46293595       0.65639131      -1.55060868
O        0.40003900       2.06178217      -0.93756231
H        0.48701732       2.27610929      -1.86639518
H        0.51686569       2.89785647      -0.48638260
O        1.12186733       1.18884520       1.61804227
H        1.16864192       1.00204911       2.55567290
H        1.64664248       1.98131375       1.50474406
O       -3.62241457      -2.99486396      -0.41590756
H       -3.41647889      -2.53258742       0.39657182
H       -3.67012365      -2.30581067      -1.07859998
O       -3.55665202      -0.81278158      -2.32911203
H       -3.72648043      -0.75378551      -3.26927670
H       -2.65810302      -1.13687443      -2.26742453
O        4.50269873      -0.95781484       0.21683064
H        4.20703933      -1.09487823       1.11684785
H        4.49438637      -1.83146855      -0.17418335
O       -0.65667412      -1.93732983       3.70993491
H       -1.32872244      -1.43265660       3.25179976
H       -0.01838710      -1.28354830       3.99522642
O       -1.74835068       3.95001838      -0.37676916
H       -1.41508487       3.09544004      -0.65037762
H       -2.33343053       4.21757564      -1.08551913
O        3.27669910      -0.47560670       2.93683860
H        3.34649350       0.46450034       2.77082859
H        2.63279215      -0.78468273       2.29958850
O        0.64572671       4.33623921       1.10846317
H       -0.24724016       4.15065453       0.81794579
H        0.80191119       3.71251353       1.81755027
O        2.91102669       6.73979244       2.15028139
H        3.79298581       6.69651345       1.78081303
H        2.49603024       7.47274062       1.69553228
O       -1.30050074      -3.81131006      -2.28153880
H       -1.32337876      -3.16371336      -1.57703404
H       -1.11549153      -3.30147229      -3.07025223
O        1.10722892      -0.03057791       4.51699330
H        1.37988965       0.80022409       4.90642364
H        1.88112703      -0.34060690       4.04667895
O       -1.98295416      -0.07020666      -4.41964500
H       -2.36423088       0.74029975      -4.08209609
H       -2.19647719      -0.06548214      -5.35271383
O        0.49379985      -2.74388788      -4.02495434
H       -0.01925644      -1.95257912      -4.18876990
H        0.81447262      -2.64079017      -3.12897907
O       -3.39656783       2.05232094      -3.41882509
H       -4.28636333       2.33277664      -3.63292886
H       -2.87463453       2.85332889      -3.46576918
O        1.69524441       3.50656549       3.77534662
H        2.50087986       3.51981342       3.25861859
H        1.74165221       4.29745423       4.31253668
O       -3.40673828      -3.10706726       3.01894489
H       -3.02116141      -2.55317808       2.34014514
H       -3.01825027      -2.79205187       3.83507859
O        1.81761122      -5.07158991       1.19972073
H        1.40389563      -4.39434981       0.66454123
H        1.96984627      -5.79669593       0.59368642
O       -2.27110205       3.55665435       3.61887904
H       -1.70815895       3.66389306       2.85218043
H       -3.05501316       4.06638588       3.41421108
O       -1.89252220      -5.25644996      -0.05455363
H       -2.54179617      -4.55617510       0.01094657
H       -1.36485380      -5.02378916      -0.81853455
O       -0.35526255       2.29587098       5.08989722
H       -1.08556018       2.69362859       4.61588659
H        0.42625735       2.61832407       4.64102921
O        3.99669877      -4.05789379      -0.08371397
H        3.42352308      -4.44474918       0.57813523
H        3.41200088      -3.83924029      -0.80935222
O        2.56378601       2.48239178      -4.55344375
H        2.83184872       1.59063556      -4.77513062
H        2.24521157       2.42036746      -3.65294658
O        4.23107763       4.01398488       0.70446408
H        4.94791131       3.98646039       0.07072619
H        3.70874055       3.23581671       0.50991303
O        5.84083888       0.43097316      -1.76187220
H        5.31096412       0.00156109      -1.09025486
H        5.60235510       1.35596439      -1.70064669
O        3.09761849       4.98302681      -1.65678616
H        3.32364230       4.64147458      -0.79163464
H        2.35561855       5.56653735      -1.49809347
O       -3.67532885       0.84408589       3.65551243
H       -3.44724929       0.53749189       4.53312947
H       -3.26419421       1.70585056       3.58797125
O        6.29041949       0.96303614       0.93277078
H        5.58063643       0.32235437       0.88842308
H        7.04143848       0.46701087       1.25859472
O        4.83320089      -1.07080271      -3.79356052
H        5.28536218      -0.44873172      -3.22363975
H        4.10385011      -0.57232419      -4.16206892
O       -0.31519203       6.25310266      -0.57741590
H       -1.00232695       5.59096918      -0.65262691
H        0.19648847       5.98244136       0.18492088
O       -3.77741600      -2.69228623      -4.40527318
H       -3.61870466      -3.41051322      -5.01780280
H       -4.63676398      -2.35110704      -4.65296181
O        2.88074355       0.04513306      -5.84051356
H        3.74717969      -0.21266881      -6.15524909
H        2.48341981      -0.77077768      -5.53612015
O       -6.24841145      -1.00803497      -1.99056388
H       -6.60359979      -0.22944821      -2.41937122
H       -5.29979203      -0.92284738      -2.08593744
O        1.70413064      -3.13861415       5.49861346
H        0.92997113      -2.74148999       5.09961309
H        1.40786044      -4.00042653       5.79141927
O        3.03387237      -4.72032461      -3.39687091
H        3.66602550      -5.04694527      -2.75661065
H        2.18091523      -4.96713217      -3.03940484
O       -2.52489242      -2.57975829       5.57954612
H       -1.83963145      -2.01478338       5.22254107
H       -2.05382452      -3.33426992       5.93315475
O        0.69439566      -6.02597279      -2.92726283
H        0.85616335      -6.08829852      -3.86863341
H        0.17199707      -5.23035112      -2.82568664
O       -3.21568458       5.81480691       1.27897052
H       -4.10316941       5.88644694       0.92758721
H       -2.76285754       5.23135838       0.67006385
O       -2.75522091      -5.69388974       2.48765015
H       -2.98152928      -4.77064707       2.60007502
H       -2.71019730      -5.81619300       1.53936400
O        2.64615709      -2.66031775      -5.68590547
H        2.14793443      -2.74555425      -4.87304586
H        2.06606892      -3.01245309      -6.36098344
O        3.56253852      -4.30910950       3.89403850
H        2.86572505      -3.89830838       4.40582485
H        3.16302273      -4.48458262       3.04208301
O       -6.52464323       0.57942529       2.19473307
H       -6.30541633      -0.23237832       2.65205823
H       -6.79487083       1.18049716       2.88893872
O        0.57604606      -5.93369784       3.57760308
H        0.93457432      -5.70816776       2.71921768
H       -0.08615710      -5.26306109       3.74483096
O        5.97056753      -3.17489706      -1.73389325
H        5.46359881      -2.60443886      -2.31164059
H        5.33274463      -3.50189528      -1.09947545
O        0.53463262       5.14839983      -3.79366066
H        0.52587343       5.65947158      -2.98436418
H        1.45521081       5.12879471      -4.05516262
O       -4.39991199       2.90584426       1.13879146
H       -5.30348458       2.92284993       0.82335649
H       -4.11752076       3.81990213       1.10740290
O       -0.36595840       6.26043551       3.14738362
H       -1.21050075       5.86448180       3.36232716
H        0.02082457       5.66642068       2.50412850
O       -2.89098014       0.09016984       6.43262028
H       -2.23959522      -0.02401005       7.12464086
H       -3.48847554      -0.64975273       6.54099777
O       -5.26975778      -4.47876397       1.54243987
H       -4.64283287      -3.84867104       1.89765798
H       -5.08607049      -5.29159964       2.01338466
O       -5.82965576      -0.28155602      -5.06530718
H       -4.93234806      -0.35978293      -5.38926903
H       -5.78374209      -0.58001065      -4.15698532
O        3.51703432       1.78849473       5.96266597
H        4.34633718       2.20727992       5.73221516
H        2.88511255       2.50690029       5.99095327
O       -0.77804348      -5.11287728      -5.02458164
H       -0.26723548      -5.29421741      -5.81351940
H       -0.44719688      -4.27051328      -4.71282010
O       -6.73440816      -2.73849731       0.05089606
H       -6.22104420      -2.21116950      -0.56116167
H       -6.09442765      -3.31891604       0.46292868
O       -5.87887058      -2.18423224       3.67874501
H       -6.34564376      -2.91988577       4.07518989
H       -5.04095917      -2.55374485       3.40018311
O        6.12628094       3.04228815       2.67867565
H        6.53594977       2.35645358       2.15138612
H        5.35159831       3.29904135       2.17849922
O        0.61799073      -0.22474556       7.29243455
H        0.69511978      -0.34356578       6.34577479
H        0.85215308       0.69170202       7.43914404
O       -3.08395956      -0.95545350      -6.74397653
H       -2.32746711      -1.42472358      -7.09573866
H       -3.36299069      -1.47889002      -5.99271913
O        6.31438674       3.85788425      -1.03733392
H        6.57040462       3.21257433      -1.69631936
H        6.42835982       4.70301956      -1.47206173
O        6.08983330       0.62410717       4.33433935
H        6.14271419       1.42801054       3.81744978
H        5.48306172       0.06573129       3.84825658
O        1.44823017       1.98326588      -7.10144409
H        2.10558618       1.31243208      -6.91679054
H        1.95679923       2.77052497      -7.29589841
O        2.03136972      -7.20677135      -0.65441425
H        1.54398414      -6.89198944      -1.41572856
H        1.86800256      -8.14978441      -0.63800171
O       -0.91174850      -7.38133114       1.33158034
H       -0.44776192      -6.84221604       1.97212948
H       -1.14534416      -6.77316077       0.63030029
O       -7.29925690       2.17448101       0.13216891
H       -8.24557864       2.22919661       0.26525990
H       -6.98217055       1.65801471       0.87308094
O        6.21712390      -3.33460368       3.00244122
H        5.37336983      -3.68805900       3.28418621
H        6.57432596      -4.00324510       2.41801228
O       -6.19089355       2.82038041      -3.75540022
H       -5.79279301       3.52706629      -4.26367463
H       -6.56456488       3.25656418      -2.98966836
O        3.61924886       4.98396766      -4.76633924
H        3.66287408       4.03295913      -4.66678298
H        4.14361714       5.32540069      -4.04198211
O        5.05450035      -3.58107134      -4.81728067
H        4.35635479      -4.16998959      -4.53092439
H        4.94780261      -2.80030872      -4.27390495
O       -2.45276407       7.19791839      -1.96900193
H       -2.70222936       7.78916489      -1.25877204
H       -1.52407200       7.02108172      -1.81902973
O        1.58961688       5.92769276       5.01042909
H        2.24421303       6.59971994       4.82038911
H        0.90451489       6.06839722       4.35692365
O        5.00334669      -6.09050801       1.41746823
H        4.94441259      -5.60886797       2.24256306
H        5.10996351      -5.41210342       0.75066099
O       -5.74178253       2.88908211       4.88406321
H       -5.15077527       2.22230517       4.53427645
H       -5.40008679       3.07799785       5.75801213
O        0.36416786       2.45481111       7.70820934
H        0.45979943       3.39101660       7.88315421
H        0.10923781       2.40766523       6.78678665
O       -5.37611793       5.83078329      -1.75659162
H       -6.12525277       5.30391243      -2.03486474
H       -4.62079610       5.25452532      -1.87341425
O       -2.95944484       4.53886486       6.06015945
H       -2.31861527       5.24443434       6.14814246
H       -2.64103334       4.01583752       5.32443643
O       -0.70012654       0.63348622      -8.08177986
H       -1.29059410       0.47320243      -7.34564875
H        0.06337955       1.05680874      -7.68923897
O        7.96274549      -0.98694769       1.82677080
H        7.47478106      -1.72165516       2.19869483
H        8.81068350      -1.01302325       2.27011382
O        7.26613533       2.33642310      -3.08693694
H        8.00718188       2.35392900      -3.69255678
H        7.13109848       1.40747479      -2.89971538
O       -1.36174465      -4.86642148       6.48323783
H       -1.18641099      -4.36415506       7.27898804
H       -0.58746713      -5.41814223       6.37219562
O       -2.46001885       5.56442789      -5.53992079
H       -1.68039506       5.52224002      -4.98617105
H       -2.55007914       6.49226334      -5.75727386
O        0.49305164      -4.17262083      -7.23786770
H        0.21333046      -4.90901246      -7.78166478
H        0.40725444      -3.40779742      -7.80700373
O        5.44295376       5.73037779      -2.81405415
H        5.79911093       6.59859346      -2.62541306
H        4.73675683       5.61726302      -2.17787588
O       -3.20226821      -4.58713914      -6.29582177
H       -2.36958970      -4.82946693      -5.89066060
H       -3.59724162      -5.42120525      -6.54991148
O       -4.90273965       5.42549591       4.37316190
H       -5.10337960       4.49836021       4.24511951
H       -4.21507002       5.43249681       5.03896465
O        5.41906413      -1.34179114      -6.45014051
H        5.62802369      -0.43404832      -6.67052816
H        5.39612216      -1.35727456      -5.49334076
O        8.12888161      -0.90341903      -2.45140168
H        8.04642264      -1.02198587      -3.39764386
H        7.35243472      -0.40132501      -2.20388674
O        1.80826677      -6.20984315      -5.57918400
H        1.54904747      -5.65727440      -6.31654752
H        2.41925741      -5.66989277      -5.07781001
O       -0.80298459      -8.21407481      -2.32025273
H       -0.44551380      -8.49914844      -1.47931307
H       -0.31435104      -7.41854672      -2.53144968
O        1.15613304       8.53048347      -0.36030000
H        0.63695700       7.74237721      -0.52022687
H        0.78840658       9.18476050      -0.95437967
O       -5.84828704       6.36218713       0.86887336
H       -6.02604305       7.28309784       1.06007506
H       -5.78714734       6.32270520      -0.08555577
O        6.06910510       3.19648983       5.39367436
H        6.77627579       2.56152152       5.50750189
H        6.03087135       3.34634586       4.44905105
O       -4.77590659      -2.01904716       6.99973561
H       -4.09652371      -2.52090747       6.54939468
H       -5.53345890      -2.60384391       7.01868564
O        5.85755740       6.38292753       0.97222968
H        5.54353848       6.86281515       0.20585390
H        5.26631600       5.63368849       1.04507410
O        3.88371514       4.44799723       6.42139357
H        3.25066023       4.73215377       5.76205422
H        4.62958104       4.12628644       5.91501618
O       -0.50601778      -2.94787299       8.21397199
H       -1.29826542      -2.67754007       8.67818707
H       -0.10749788      -2.12807026       7.92184667
O       -7.50293933       4.13525505      -1.74193851
H       -7.38168909       3.44225866      -1.09287286
H       -8.34072331       3.93100368      -2.15742763
O        1.09032646      -6.01968367       6.24715820
H        0.97516053      -6.02762883       5.29694479
H        2.03482433      -6.10781793       6.37517367
O       -7.42532472      -3.27416242      -3.26890432
H       -7.69014392      -3.82547017      -2.53258754
H       -7.03707128      -2.49987532      -2.86150944
O       -5.87674848      -5.47302486      -3.67549457
H       -6.10834484      -5.87544683      -4.51254386
H       -6.32952908      -4.62970476      -3.68121997
O        6.14248147       3.99982236      -5.01783002
H        6.03882822       4.66047613      -4.33297644
H        6.51217593       3.24143738      -4.56571270
O       -1.98791006      -7.58448622       4.28633670
H       -2.25613917      -6.92193958       3.64969164
H       -1.40203738      -7.11982097       4.88389109
O       -5.01660148      -7.28369445      -1.83700719
H       -5.38305593      -6.58127628      -2.37417726
H       -4.36606012      -7.70239753      -2.40066978
O       -3.17809610       8.48656700       0.31643072
H       -2.62153192       9.00630325       0.89638105
H       -3.09897209       7.59156049       0.64648310
O        0.19671156      -2.00099574      -8.84865230
H        0.39883832      -1.95987780      -9.78336399
H       -0.06169657      -1.10827724      -8.61950003
O       -2.12552663       3.85391372      -7.94879739
H       -2.95684243       3.86481109      -8.42316765
H       -2.28065935       4.40275373      -7.18007097
O        7.92070693       4.34486759       1.10332226
H        7.27399882       4.09802102       1.76443286
H        7.44458501       4.30187494       0.27405066
O       -1.72772240       8.55437148       2.61647870
H       -2.38920110       8.55445131       3.30834412
H       -1.22512898       7.75340128       2.76506687
O       -1.93768904      -0.45615174       8.93827071
H       -1.85299113      -0.61775627       9.87792069
H       -1.04225056      -0.50850727       8.60408413
O       -5.42596161      -6.90030587       2.77340747
H       -5.77233505      -7.56190046       3.37219782
H       -4.48479937      -6.88828259       2.94747906
O       -5.19750264      -2.89734155      -7.04550424
H       -4.55440068      -3.53437330      -6.73430937
H       -4.67281552      -2.16451463      -7.36783943
O        5.43526620      -0.50418494       7.45805909
H        6.20101614      -0.00185315       7.73648619
H        4.88674385       0.13033108       6.99681676
O        2.47985449       7.75291123      -4.43762435
H        3.01995172       8.02312282      -3.69498547
H        2.84441438       6.90924050      -4.70510824
O       -3.13736992      -7.95523277      -3.69212953
H       -3.22041806      -7.03181541      -3.93011110
H       -2.31966344      -8.00281032      -3.19682726
O        5.88403054       1.25448020      -7.14704159
H        6.76666405       1.11446120      -7.48994771
H        5.96096235       2.03451444      -6.59762378
O       -9.27340072       0.23032958       1.25525102
H       -9.78940971       0.82010448       1.80491649
H       -8.37308574       0.34509656       1.55937817
O       -4.74909146       0.66299494      -8.16043127
H       -4.13237543       0.10058507      -7.69182875
H       -5.59133689       0.50241941      -7.73490809
O       -5.13871056       6.27543977      -4.89328674
H       -5.28825504       5.95092640      -4.00527809
H       -4.30890927       5.87809123      -5.15743785
O       -8.72953383      -0.90904832      -3.59088862
H       -7.90858480      -0.71382037      -4.04272995
H       -8.76678612      -1.86512422      -3.56326658
O       -4.77131642       1.06667840       8.13824824
H       -4.09644332       0.93867601       7.47161977
H       -5.56361394       0.69290511       7.75251517
O       -1.34230133       6.64517238       6.64898745
H       -1.35163377       7.60155426       6.68743820
H       -0.50924221       6.42997242       6.22954338
O        3.91561970      -3.49220272      -7.94307914
H        4.44484239      -2.85598738      -7.46205395
H        3.48896261      -2.97936683      -8.62951554
O       -8.31254886      -4.42353631       1.48913833
H       -7.92410421      -3.75112196       0.92949422
H       -9.23454029      -4.17558427       1.55757402
O        3.71229322       1.99271940      -8.60887616
H        3.26905085       1.15516626      -8.74405298
H        4.47699680       1.77620201      -8.07541529
O        2.64418418       4.43727178      -8.07811479
H        3.17986306       5.22757002      -8.00949493
H        3.24446908       3.76830086      -8.40730743
O        1.49556378      -8.34544051       4.53708038
H        0.87100204      -9.01067396       4.24791099
H        1.23874364      -7.55360708       4.06456047
O        4.07633952       8.51568971      -1.90311680
H        3.98902760       9.25325295      -2.50694537
H        3.23050517       8.46896135      -1.45745712
391
Lattice="41.66128467772588 0.0 0.0 0.0 41.66128467772588 0.0 0.0 0.0 41.66128467772588" Properties=species:S:1:pos:R:3 charge=0 spin=1 spin_multiplicity=1 metal=Lu geometry=droplet boundary=pbc droplet_radius=9.631 pbc="T T T"
Lu      21.32000545      20.70935284      20.78336399
O       20.12694173      18.92926133      20.51230464
H       20.03940350      18.15054443      21.07376083
O       23.39386230      20.66170134      20.18132821
H       24.16004334      20.28317079      20.62739685
O       20.06352351      20.60081347      22.53695241
H       19.31838744      21.15274537      22.80046601
O       21.27853653      20.35350857      18.51143635
H       21.98775861      20.02976224      17.95607683
H       20.54818757      20.49596547      17.90933314
O       22.29935595      19.11898927      22.12560700
H       22.01455676      18.82720425      22.99162245
H       23.08309783      18.60054314      21.94341450
O       19.26025653      21.46671548      20.09500634
H       18.61407802      21.95353495      20.60656473
H       18.85706949      21.36574415      19.23275531
O       21.72004444      22.77113501      19.84580168
H       21.80702276      22.98546213      18.91696881
H       21.83687113      23.60720932      20.29698138
O       22.44187278      21.89819804      22.40140625
H       22.48864736      21.71140195      23.33903688
H       22.96664792      22.69066659      22.28810805
O       17.69759087      17.71448888      20.36745643
H       17.90352656      18.17676542      21.17993580
H       17.64988180      18.40354217      19.70476400
O       17.76335342      19.89657126      18.45425196
H       17.59352502      19.95556733      17.51408728
H       18.66190243      19.57247841      18.51593946
O       25.82270417      19.75153800      21.00019463
H       25.52704477      19.61447461      21.90021184
H       25.81439181      18.87788429      20.60918063
O       20.66333133      18.77202302      24.49329890
H       19.99128300      19.27669624      24.03516374
H       21.30161834      19.42580454      24.77859041
O       19.57165476      24.65937123      20.40659483
H       19.90492058      23.80479288      20.13298637
H       18.98657492      24.92692848      19.69784485
O       24.59670455      20.23374614      23.72020258
H       24.66649894      21.17385319      23.55419258
H       23.95279760      19.92467011      23.08295249
O       21.96573215      25.04559206      21.89182715
H       21.07276529      24.86000737      21.60130978
H       22.12191663      24.42186637      22.60091426
O       24.23103213      27.44914529      22.93364538
H       25.11299126      27.40586629      22.56417702
H       23.81603568      28.18209346      22.47889626
O       20.01950471      16.89804278      18.50182519
H       19.99662669      17.54563948      19.20632995
H       20.20451391      17.40788056      17.71311176
O       22.42723436      20.67877493      25.30035728
H       22.69989510      21.50957693      25.68978763
H       23.20113247      20.36874594      24.83004294
O       19.33705128      20.63914619      16.36371898
H       18.95577456      21.44965259      16.70126789
H       19.12352826      20.64387070      15.43065016
O       21.81380529      17.96546496      16.75840965
H       21.30074900      18.75677372      16.59459408
H       22.13447806      18.06856267      17.65438492
O       17.92343761      22.76167379      17.36453889
H       17.03364212      23.04212948      17.15043513
H       18.44537091      23.56268173      17.31759481
O       23.01524986      24.21591833      24.55871060
H       23.82088531      24.22916627      24.04198258
H       23.06165765      25.00680707      25.09590067
O       17.91326717      17.60228558      23.80230888
H       18.29884403      18.15617476      23.12350912
H       18.30175517      17.91730097      24.61844258
O       23.13761667      15.63776293      21.98308471
H       22.72390107      16.31500303      21.44790522
H       23.28985172      14.91265691      21.37705041
O       19.04890339      24.26600720      24.40224303
H       19.61184649      24.37324590      23.63554441
H       18.26499228      24.77573872      24.19757506
O       19.42748325      15.45290288      20.72881036
H       18.77820928      16.15317774      20.79431056
H       19.95515165      15.68556368      19.96482944
O       20.96474290      23.00522382      25.87326121
H       20.23444526      23.40298143      25.39925058
H       21.74626280      23.32767691      25.42439320
O       25.31670422      16.65145905      20.69965001
H       24.74352852      16.26460367      21.36149922
H       24.73200633      16.87011255      19.97401177
O       23.88379145      23.19174462      16.22992024
H       24.15185417      22.29998840      16.00823337
H       23.56521701      23.12972030      17.13041741
O       25.55108308      24.72333772      21.48782807
H       26.26791676      24.69581323      20.85409018
H       25.02874599      23.94516955      21.29327701
O       27.16084432      21.14032600      19.02149179
H       26.63096956      20.71091393      19.69310913
H       26.92236055      22.06531723      19.08271729
O       24.41762393      25.69237965      19.12657783
H       24.64364774      25.35082742      19.99172935
H       23.67562399      26.27589019      19.28527052
O       17.64467660      21.55343873      24.43887642
H       17.87275615      21.24684474      25.31649346
H       18.05581124      22.41520340      24.37133524
O       27.61042493      21.67238898      21.71613477
H       26.90064187      21.03170721      21.67178707
H       28.36144393      21.17636371      22.04195871
O       26.15320633      19.63855013      16.98980346
H       26.60536762      20.26062112      17.55972424
H       25.42385555      20.13702865      16.62129506
O       21.00481342      26.96245550      20.20594808
H       20.31767849      26.30032202      20.13073708
H       21.51649392      26.69179421      20.96828487
O       17.54258944      18.01706661      16.37809081
H       17.70130079      17.29883962      15.76556119
H       16.68324147      18.35824580      16.13040218
O       24.20074900      20.75448590      14.94285043
H       25.06718513      20.49668403      14.62811489
H       23.80342525      19.93857516      15.24724384
O       15.07159399      19.70131788      18.79280011
H       14.71640565      20.47990464      18.36399276
H       16.02021341      19.78650546      18.69742655
O       23.02413608      17.57073869      26.28197745
H       22.24997658      17.96786285      25.88297707
H       22.72786588      16.70892632      26.57478326
O       24.35387781      15.98902823      17.38649307
H       24.98603095      15.66240757      18.02675333
H       23.50092068      15.74222067      17.74395915
O       18.79511303      18.12959455      26.36291010
H       19.48037400      18.69456946      26.00590506
H       19.26618093      17.37508292      26.71651873
O       22.01440110      14.68338005      17.85610115
H       22.17616879      14.62105432      16.91473058
H       21.49200251      15.47900172      17.95767735
O       18.10432086      26.52415975      22.06233451
H       17.21683604      26.59579978      21.71095119
H       18.55714790      25.94071123      21.45342784
O       18.56478453      15.01546311      23.27101414
H       18.33847616      15.93870577      23.38343901
H       18.60980815      14.89315985      22.32272799
O       23.96616254      18.04903509      15.09745851
H       23.46793987      17.96379860      15.91031813
H       23.38607437      17.69689975      14.42238055
O       24.88254397      16.40024335      24.67740249
H       24.18573050      16.81104447      25.18918883
H       24.48302817      16.22477022      23.82544700
O       14.79536222      21.28877813      22.97809705
H       15.01458912      20.47697452      23.43542222
H       14.52513462      21.88985000      23.67230271
O       21.89605151      14.77565500      24.36096707
H       22.25457976      15.00118508      23.50258166
H       21.23384834      15.44629175      24.52819495
O       27.29057298      17.53445578      19.04947074
H       26.78360426      18.10491398      18.47172339
H       26.65275007      17.20745756      19.68388854
O       21.85463806      25.85775267      16.98970333
H       21.84587888      26.36882442      17.79899980
H       22.77521625      25.83814755      16.72820137
O       16.92009346      23.61519710      21.92215544
H       16.01652086      23.63220278      21.60672048
H       17.20248468      24.52925498      21.89076689
O       20.95404704      26.96978836      23.93074761
H       20.10950469      26.57383465      24.14569114
H       21.34083002      26.37577352      23.28749249
O       18.42902531      20.79952268      27.21598426
H       19.08041022      20.68534279      27.90800485
H       17.83152990      20.05960012      27.32436176
O       16.05024767      16.23058888      22.32580386
H       16.67717257      16.86068180      22.68102197
H       16.23393495      15.41775321      22.79674865
O       15.49034969      20.42779683      15.71805681
H       16.38765739      20.34956992      15.39409496
H       15.53626336      20.12934219      16.62637867
O       24.83703977      22.49784757      26.74602995
H       25.66634262      22.91663276      26.51557914
H       24.20511800      23.21625313      26.77431726
O       20.54196196      15.59647556      15.75878235
H       21.05276996      15.41513543      14.96984459
H       20.87280856      16.43883957      16.07054388
O       14.58559729      17.97085553      20.83426005
H       15.09896125      18.49818334      20.22220232
H       15.22557780      17.39043680      21.24629267
O       15.44113486      18.52512060      24.46210900
H       14.97436169      17.78946707      24.85855387
H       16.27904627      18.15560799      24.18354709
O       27.44628638      23.75164099      23.46203963
H       27.85595521      23.06580643      22.93475011
H       26.67160375      24.00839419      22.96186321
O       21.93799617      20.48460729      28.07579853
H       22.01512522      20.36578706      27.12913877
H       22.17215853      21.40105486      28.22250802
O       18.23604589      19.75389934      14.03938746
H       18.99253834      19.28462926      13.68762532
H       17.95701476      19.23046282      14.79064486
O       27.63439219      24.56723709      19.74603007
H       27.89041006      23.92192718      19.08704463
H       27.74836526      25.41237241      19.31130225
O       27.40983875      21.33346001      25.11770333
H       27.46271963      22.13736338      24.60081376
H       26.80306717      20.77508413      24.63162056
O       22.76823562      22.69261872      13.68191990
H       23.42559163      22.02178493      13.86657345
H       23.27680468      23.47987781      13.48746558
O       23.35137516      13.50258149      20.12894974
H       22.86398958      13.81736340      19.36763542
H       23.18800800      12.55956843      20.14536228
O       20.40825695      13.32802170      22.11494432
H       20.87224352      13.86713680      22.75549347
H       20.17466128      13.93619207      21.41366427
O       14.02074854      22.88383385      20.91553289
H       13.07442681      22.93854945      21.04862389
H       14.33783490      22.36736755      21.65644493
O       27.53712935      17.37474916      23.78580521
H       26.69337527      17.02129384      24.06755020
H       27.89433140      16.70610774      23.20137626
O       15.12911190      23.52973325      17.02796376
H       15.52721243      24.23641913      16.51968936
H       14.75544056      23.96591702      17.79369563
O       24.93925431      25.69332050      16.01702475
H       24.98287952      24.74231197      16.11658101
H       25.46362259      26.03475353      16.74138187
O       26.37450579      17.12828151      15.96608332
H       25.67636024      16.53936325      16.25243960
H       26.26780806      17.90904412      16.50945904
O       18.86724137      27.90727124      18.81436206
H       18.61777609      28.49851773      19.52459194
H       19.79593345      27.73043457      18.96433426
O       22.90962232      26.63704561      25.79379307
H       23.56421848      27.30907278      25.60375310
H       22.22452033      26.77775006      25.14028763
O       26.32335214      14.61884483      22.20083221
H       26.26441803      15.10048487      23.02592705
H       26.42996895      15.29724943      21.53402497
O       15.57822292      23.59843495      25.66742720
H       16.16923017      22.93165801      25.31764044
H       15.91991866      23.78735069      26.54137611
O       21.68417330      23.16416395      28.49157332
H       21.77980487      24.10036945      28.66651819
H       21.42924325      23.11701808      27.57015063
O       15.94388752      26.54013614      19.02677237
H       15.19475268      26.01326528      18.74849925
H       16.69920934      25.96387816      18.90994973
O       18.36056061      25.24821770      26.84352343
H       19.00139018      25.95378718      26.93150645
H       18.67897211      24.72519036      26.10780042
O       20.61987891      21.34283906      12.70158413
H       20.02941135      21.18255527      13.43771523
H       21.38338499      21.76616158      13.09412501
O       29.28275093      19.72240516      22.61013479
H       28.79478651      18.98769768      22.98205881
H       30.13068895      19.69632960      23.05347780
O       28.58614077      23.04577595      17.69642705
H       29.32718733      23.06328185      17.09080721
H       28.45110393      22.11682763      17.88364861
O       19.95826080      15.84293136      27.26660182
H       20.13359445      16.34519778      28.06235203
H       20.73253832      15.29121061      27.15555961
O       18.85998660      26.27378073      15.24344320
H       19.63961039      26.23159286      15.79719294
H       18.76992631      27.20161619      15.02609013
O       21.81305708      16.53673201      13.54549629
H       21.53333590      15.80034038      13.00169920
H       21.72725989      17.30155542      12.97636026
O       26.76295920      26.43973063      17.96930984
H       27.11911638      27.30794630      18.15795093
H       26.05676228      26.32661586      18.60548811
O       18.11773723      16.12221370      14.48754221
H       18.95041574      15.87988591      14.89270339
H       17.72276383      15.28814759      14.23345250
O       16.41726579      26.13484875      25.15652588
H       16.21662585      25.20771306      25.02848350
H       17.10493543      26.14184965      25.82232863
O       26.73906958      19.36756170      14.33322348
H       26.94802913      20.27530453      14.11283583
H       26.71612761      19.35207828      15.29002323
O       29.44888706      19.80593381      18.33196231
H       29.36642808      19.68736698      17.38572013
H       28.67244016      20.30802784      18.57947725
O       23.12827221      14.49950970      15.20417999
H       22.86905291      15.05207845      14.46681646
H       23.73926285      15.03946007      15.70555398
O       20.51702086      12.49527803      18.46311126
H       20.87449164      12.21020440      19.30405091
H       21.00565441      13.29080612      18.25191430
O       22.47613848      29.23983631      20.42306398
H       21.95696245      28.45173005      20.26313711
H       22.10841202      29.89411335      19.82898431
O       15.47171841      27.07153997      21.65223734
H       15.29396240      27.99245069      21.84343905
H       15.53285810      27.03205804      20.69780822
O       27.38911054      23.90584267      26.17703835
H       28.09628124      23.27087436      26.29086587
H       27.35087679      24.05569870      25.23241504
O       16.54409885      18.69030569      27.78309960
H       17.22348173      18.18844537      27.33275866
H       15.78654655      18.10550893      27.80204962
O       27.17756284      27.09228037      21.75559367
H       26.86354392      27.57216799      20.98921789
H       26.58632144      26.34304134      21.82843809
O       25.20372059      25.15735007      27.20475756
H       24.57066568      25.44150661      26.54541820
H       25.94958649      24.83563928      26.69838017
O       20.81398766      17.76147985      28.99733598
H       20.02174003      18.03181277      29.46155105
H       21.21250756      18.58128259      28.70521066
O       13.81706612      24.84460789      19.04142547
H       13.93831635      24.15161150      19.69049112
H       12.97928213      24.64035652      18.62593636
O       22.41033190      14.68966917      27.03052219
H       22.29516597      14.68172401      26.08030878
H       23.35482978      14.60153491      27.15853766
O       13.89468073      17.43519042      17.51445966
H       13.62986152      16.88388267      18.25077644
H       14.28293416      18.20947752      17.92185455
O       15.44325696      15.23632798      17.10786941
H       15.21166060      14.83390601      16.27082012
H       14.99047636      16.07964808      17.10214401
O       27.46248691      24.70917520      15.76553396
H       27.35883366      25.36982897      16.45038755
H       27.83218138      23.95079023      16.21765129
O       19.33209539      13.12486662      25.06970068
H       19.06386628      13.78741326      24.43305562
H       19.91796806      13.58953187      25.66725508
O       16.30340396      13.42565839      18.94635679
H       15.93694951      14.12807656      18.40918672
H       16.95394532      13.00695531      18.38269420
O       18.14190934      29.19591984      21.09979471
H       18.69847352      29.71565610      21.67974503
H       18.22103336      28.30091333      21.42984709
O       21.51671700      18.70835710      11.93471168
H       21.71884376      18.74947504      11.00000000
H       21.25830888      19.60107560      12.16386396
O       19.19447881      24.56326656      12.83456659
H       18.36316302      24.57416393      12.36019634
H       19.03934610      25.11210657      13.60329302
O       29.24071237      25.05422043      21.88668624
H       28.59400426      24.80737386      22.54779685
H       28.76459045      25.01122778      21.05741464
O       19.59228305      29.26372432      23.39984268
H       18.93080435      29.26380415      24.09170811
H       20.09487646      28.46275412      23.54843086
O       19.38231640      20.25320110      29.72163470
H       19.46701431      20.09159657      30.66128468
H       20.27775488      20.20084557      29.38744812
O       15.89404383      13.80904697      23.55677146
H       15.54767039      13.14745238      24.15556181
H       16.83520607      13.82107025      23.73084305
O       16.12250280      17.81201129      13.73785974
H       16.76560477      17.17497954      14.04905462
H       16.64718992      18.54483821      13.41552456
O       26.75527165      20.20516790      28.24142307
H       27.52102158      20.70749969      28.51985018
H       26.20674929      20.83968392      27.78018075
O       23.79985994      28.46226407      16.34573963
H       24.33995717      28.73247566      17.08837852
H       24.16441983      27.61859335      16.07825575
O       18.18263553      12.75412008      17.09123446
H       18.09958738      13.67753743      16.85325289
H       19.00034201      12.70654252      17.58653672
O       27.20403599      21.96383304      13.63632240
H       28.08666949      21.82381404      13.29341627
H       27.28096780      22.74386728      14.18574021
O       12.04660473      20.93968242      22.03861501
H       11.53059573      21.52945732      22.58828048
H       12.94691970      21.05444940      22.34274215
O       16.57091399      21.37234778      12.62293271
H       17.18763001      20.80993791      13.09153523
H       15.72866856      21.21177225      13.04845589
O       16.18129488      26.98479261      15.89007724
H       16.03175041      26.66027924      16.77808590
H       17.01109617      26.58744408      15.62592614
O       12.59047162      19.80030452      17.19247536
H       13.41142064      19.99553247      16.74063404
H       12.55321932      18.84422862      17.22009741
O       16.54868902      21.77603124      28.92161223
H       17.22356213      21.64802885      28.25498375
H       15.75639151      21.40225795      28.53587915
O       19.97770411      27.35452523      27.43235143
H       19.96837167      28.31090710      27.47080219
H       20.81076323      27.13932527      27.01290737
O       25.23562514      17.21715013      12.84028484
H       25.76484783      17.85336546      13.32131003
H       24.80896806      17.72998601      12.15384845
O       13.00745658      16.28581653      22.27250232
H       13.39590124      16.95823088      21.71285821
H       12.08546516      16.53376857      22.34093800
O       25.03229866      22.70207224      12.17448783
H       24.58905629      21.86451910      12.03931101
H       25.79700225      22.48555486      12.70794869
O       23.96418963      25.14662463      12.70524919
H       24.49986850      25.93692286      12.77386906
H       24.56447452      24.47765370      12.37605656
O       22.81556923      12.36391233      25.32044436
H       22.19100749      11.69867889      25.03127497
H       22.55874909      13.15574577      24.84792445
O       25.39634496      29.22504256      18.88024718
H       25.30903305      29.96260579      18.27641861
H       24.55051061      29.17831419      19.32590687
