391
Lattice="15.781866235591567 0.0 0.0 0.0 15.781866235591567 0.0 0.0 0.0 15.781866235591567" Properties=species:S:1:pos:R:3 charge=0 spin=6 spin_multiplicity=6 metal=Dy geometry=box boundary=pbc pbc="T T T"
Dy       7.89093312       7.89093312       7.89093312
O        7.91139515       9.78115281       6.70790699
H        7.95030865      10.69750730       7.00468334
O        9.83873054       7.02210423       8.54217928
H       10.63658586       7.45927976       8.86092754
O        6.28838145       7.63705005       6.36113852
H        5.68863141       8.28740678       5.97821291
O        8.84216687       9.51383281       9.33254712
H        9.54349506       9.39020223       9.97214550
H        8.61114333      10.43985003       9.40570493
O        9.03152668       7.35354743       5.88415387
H        9.23731279       6.48352995       5.54216920
H        9.38966761       7.95787312       5.23395593
O        6.05387522       9.14866365       8.70347985
H        5.98467573       9.61251304       9.53791799
H        5.21480495       9.30665563       8.27077734
O        7.50226610       7.07524103      10.08193389
H        6.66652435       7.01369224      10.54451286
H        8.14584489       6.73349907      10.70261949
O        7.63616370       5.54768858       7.64355164
H        7.07796899       4.96182830       8.15484238
H        8.06839648       4.97501263       7.00995167
O        7.72157885      11.21419201       1.51423753
H        8.51018279      10.98122421       2.00419840
H        7.63103887      10.52026468       0.86116846
O       12.07176782      13.19270003       9.25211770
H       11.67432345      12.44316558       8.80887070
H       12.46448597      13.70773151       8.54731498
O       11.41339092      15.53000311       1.40313960
H       10.60090183      15.02394795       1.40191663
H       11.13478652      16.43163356       1.24290862
O        5.90800605       7.92736561      13.71012807
H        6.17046848       7.26220041      13.07381010
H        6.48497231       7.78291886      14.46011267
O        4.03952761      10.61633384       1.71398736
H        4.61667956      11.28667592       2.07973177
H        4.36675453      10.47676060       0.82535150
O        7.28788544       7.14770931       0.18782085
H        7.36993523       6.34318312      -0.32427025
H        8.17752606       7.49870162       0.22751706
O        3.61157560       4.56469127      13.52001688
H        4.24388388       5.28013883      13.45254199
H        3.17536631       4.70833651      14.35984981
O        5.25716833      14.19987001       0.13081212
H        5.31556527      13.68941707       0.93843793
H        6.16742549      14.35999071      -0.11823626
O        7.28598389       5.90274821      12.52670023
H        8.09152090       5.41328520      12.36006311
H        6.61805278       5.44730240      12.01418781
O       15.16125325      11.54432248       2.97506062
H       15.91958488      11.69172941       2.40987378
H       15.28811416      12.14598897       3.70863787
O        0.18464972      15.20275218       1.53016965
H       -0.18064513      15.47926727       2.37060460
H       -0.51827308      14.70213767       1.11602414
O       14.14422929       9.92109545       8.96562159
H       13.68327569      10.26160475       9.73230734
H       14.52343796      10.69551742       8.55004580
O        5.10252412      11.85303965       7.60167606
H        5.86439612      11.38006977       7.93646315
H        5.46461280      12.65446314       7.22372897
O        7.03186780       4.06577554       1.11015555
H        6.93177738       3.70587346       0.22885864
H        6.35450747       4.73919909       1.17272980
O       15.65829901      13.45553266       4.96934358
H       15.26842569      14.10253962       4.38145531
H       16.60231544      13.56921975       4.85916155
O        5.00761328      10.52662238      14.86681203
H        5.58311648      11.12667322      14.39250527
H        5.21352537       9.66317947      14.50862438
O       14.40200951      12.04946288       0.08206695
H       13.55171846      11.63157673      -0.05434466
H       14.64260593      11.81687558       0.97886589
O       15.65272901       1.73418521       7.41060302
H       16.42752597       1.25026892       7.69651653
H       15.27401221       1.19314771       6.71772219
O       13.98973310      12.29119448      13.10788379
H       14.89364416      12.55977507      13.27232558
H       13.47984044      12.73838120      13.78335796
O        8.87783243       0.87806517      11.85322464
H        9.67520184       1.06960553      11.35951809
H        8.84804671       1.55231902      12.53199294
O        1.91843777       0.96463443       4.82321168
H        2.16662453       1.23715675       3.93982798
H        2.73593796       0.98925205       5.32052370
O        0.37291499       2.86443731       2.22525542
H       -0.27526643       3.27807751       1.65517256
H        0.45791185       1.97369942       1.88526514
O        0.73384288      11.90770977      14.15789112
H        0.18204892      11.99706256      14.93491836
H        0.97080982      12.80597428      13.92724121
O       15.64478418      15.55551930      14.27377535
H       14.95864750      16.16140954      14.55367770
H       15.95179932      15.14955942      15.08443565
O        8.21953824       2.75674325      13.70812500
H        8.86204475       3.38711479      13.38247340
H        8.41160349       2.67934989      14.64265859
O       11.77761069      13.02603730       4.98470008
H       11.93772000      12.53051756       4.18154565
H       12.22661131      13.85989939       4.84576019
O       13.68405525       8.87641395       6.36716457
H       13.43815777       9.62901071       5.82923856
H       13.83698209       9.24348481       7.23785637
O        9.91476072      11.14733679      14.84969127
H       10.45669689      11.31640278      14.07900734
H        9.02211226      11.33888037      14.56207761
O       11.45939676       4.16554913       9.78937225
H       11.64298454       4.95915052      10.29208907
H       11.58396944       4.42547750       8.87660134
O       11.06392799      15.76821259      10.50270009
H       11.85058578      16.31121051      10.55324346
H       11.33856784      14.99284634      10.01319833
O        3.13490065       9.25528233      12.02545534
H        2.45342541       9.37589343      11.36418663
H        3.34069482      10.14167176      12.32243072
O        7.15740529       2.88335962      11.20720661
H        6.36427112       3.41906657      11.22092074
H        7.42898287       2.83316950      12.12369906
O        9.64824953       5.88410793      15.48973871
H        9.14067883       5.07401490      15.53824756
H       10.33067473       5.77980011      16.15279796
O        0.54780549       8.89638095       7.03324357
H        0.50738029       7.94220182       6.96890212
H       -0.07634134       9.11694948       7.72463500
O        3.43535521       7.03957879       5.42898784
H        3.81850591       7.90492121       5.57254920
H        3.64292544       6.55015328       6.22498351
O        6.78989996      10.63443101      10.85967161
H        7.12573462      10.95336425      11.69736399
H        7.05767920      11.29908758      10.22503963
O        7.32968074      12.58267966      13.56990923
H        7.87334373      13.00313797      12.90366814
H        6.53143200      12.33185317      13.10502553
O        5.05335898       5.93186821       1.15064667
H        5.64638919       6.55387298       0.72915279
H        4.28100586       5.91592879       0.58544898
O        4.75742691      15.16626343      13.36903829
H        5.56835245      15.27645631      13.86551501
H        4.06331522      15.23724886      14.02432592
O        4.93301211       1.08706821       8.71797126
H        4.61675750       1.39176939       9.56848408
H        5.80267507       0.73049235       8.89900116
O        5.81923569       2.52288254       6.57850368
H        6.42237431       3.18136987       6.92325009
H        5.53715702       2.02924157       7.34855696
O       12.16417008       5.13920719       6.59977220
H       12.61283219       5.15809048       5.75444530
H       11.92898022       4.21999873       6.72615798
O        7.20172922       0.09439194       9.84310343
H        7.86823872       0.55356097      10.35414230
H        7.67343173      -0.24312706       9.08165120
O       13.69723045       3.15542870       4.20026479
H       13.38501729       4.05191119       4.07748890
H       14.45326009       3.08270424       3.61771677
O       14.08529211      14.55432087       6.89723685
H       14.61602288      14.11300056       6.23406789
H       13.58261338      15.20557896       6.40794264
O        0.43232473       6.28583713       6.19975986
H        0.34745137       5.59512831       6.85698864
H        1.37614376       6.37984787       6.07092097
O        9.78747217       1.97589417       8.97959621
H       10.37478895       2.70554923       9.17681269
H       10.23172252       1.20693704       9.33677738
O        3.89257990      13.13246631      11.59243225
H        4.26113908      13.82958677      12.13503618
H        4.60216724      12.89124313      10.99700885
O        9.30121036       4.67517346       5.49430308
H       10.18991524       4.66430522       5.84971461
H        9.25472945       3.89592965       4.94036225
O        2.96544085      11.38247169       9.21717656
H        3.25036939      11.77962601      10.04016867
H        3.76253924      11.32363046       8.69048526
O        0.45289995      10.09008293      10.69752851
H       -0.19221128       9.69870352      10.10855865
H        1.22140427      10.23919456      10.14671213
O       14.36948502      15.52872814      11.75725325
H       14.89397210      15.52156469      12.55793660
H       13.47589055      15.69533287      12.05719263
O        3.54402030       0.53056725       2.09832314
H        3.83072850       0.77148156       2.97922640
H        3.66890164       1.32525627       1.57956900
O        1.87915048      14.14402580      13.11600846
H        1.15477716      14.67895728      13.44060584
H        1.73513535      14.09296098      12.17108314
O        9.25519998      13.98999790      11.48485296
H        9.06624334      13.50824972      10.67959156
H        9.79845161      14.72577485      11.20246707
O       13.85762977       4.09326379       0.34438844
H       14.68627207       4.52032915       0.12713520
H       14.01737965       3.16336812       0.18312513
O       13.48149307       9.86723800      11.98229982
H       14.41648576       9.87006448      11.77733027
H       13.33821591      10.68382939      12.46071595
O       11.57576500       5.53354931       1.59470362
H       12.24795959       5.19963782       1.00065868
H       12.03176357       5.65892236       2.42691678
O       15.47198660       4.38403018       7.99716412
H       15.49639999       3.44662615       7.80504567
H       15.26549724       4.43240786       8.93057377
O       15.28591371      11.82007787       7.16750250
H       15.70994971      10.97734696       7.00554599
H       15.39722859      12.30574131       6.35020704
O        2.80802470      15.56942390      15.26872104
H        2.71189816      14.62792930      15.41217647
H        2.70344202      15.95652670      16.13788484
O       12.19041506      13.72759226      15.03799747
H       11.39134765      13.69950667      14.51175199
H       11.97429518      14.30273429      15.77198363
O       13.35514309       1.02515260      15.04172555
H       12.84778373       0.59720130      15.73141824
H       13.02708404       0.64074756      14.22880375
O       10.87934562      11.01600145       8.13920970
H       10.27468610      10.30196728       8.34113519
H       10.45954524      11.49025210       7.42151491
O        5.63653463      12.68827000       2.45901356
H        6.36236222      12.17185582       2.10869579
H        5.60146471      12.45457457       3.38658479
O        2.09217348      11.68533166       3.51160457
H        2.73482764      11.34765746       2.88774272
H        2.34677022      11.30063731       4.35030750
O        7.60236459       9.72535665      15.02056125
H        7.47017331       9.58525910      14.08294193
H        8.48074550       9.38603000      15.19242235
O        7.88263125       0.27191071       2.29574582
H        8.27553270       1.02148977       1.84854170
H        8.40270156      -0.47856282       2.00843382
O       12.28486120      10.31986095       0.11487196
H       12.28053026      10.59030842       1.03306107
H       11.36971160      10.38357112      -0.15839361
O        8.04744218      12.60823891       8.75044067
H        8.64924844      12.10407307       8.20282961
H        7.54074259      13.13259309       8.13032773
O       12.94317914       2.41200034      11.85940992
H       12.49957230       1.60117115      12.10840958
H       12.35493061       2.82251393      11.22563227
O       11.68762511       3.89378229      14.49797904
H       11.05918789       4.52582270      14.84701116
H       11.74064169       3.21275384      15.16851714
O        9.42967271       8.10220187      12.97671554
H        9.87149051       8.24917985      13.81303267
H        9.89428068       8.66531959      12.35762774
O        3.22193922       2.39439038       0.14364555
H        3.85448391       2.35754744      -0.57382337
H        2.97601412       3.31776630       0.19958840
O        9.77917646       4.85416570      12.81456361
H       10.70214468       4.60063466      12.82370319
H        9.64748593       5.31077127      13.64546722
O        2.63058169       5.04534761       0.28902283
H        2.44605393       5.93102190      -0.02364696
H        2.06632700       4.93877873       1.05485020
O        0.41275874       6.56071011       3.49375500
H        0.30580637       6.44706571       4.43814792
H        1.30998681       6.87773578       3.39027383
O       12.47676823      11.54259411       2.53695687
H       12.28519721      10.83246647       3.14953432
H       13.43124802      11.61439192       2.54368341
O       14.81113708       9.38111088      15.52920815
H       13.86364653       9.51137225      15.49015087
H       15.13061495       9.68687966      14.68028460
O       14.77934531       0.11030759       4.11889465
H       14.29006154       0.91692707       3.95703593
H       15.68701443       0.39657903       4.22095962
O        3.19573136      14.09960791       4.45185064
H        2.86778749      14.78926518       3.87473928
H        2.76826862      13.30206080       4.13971916
O       11.35160907       2.54590571       6.71289545
H       10.59033216       2.16990065       7.15483380
H       11.10659957       2.56557950       5.78779268
O       11.00410783       9.21809410      11.05938133
H       11.67066003       9.70166121      11.54733916
H       11.49959448       8.58805825      10.53614175
O        9.11968150       2.32545686       1.01095033
H       10.05967138       2.50611753       1.00740043
H        8.70939737       3.18941599       1.04933499
O        8.40064657      15.67132497       7.39505375
H        8.86523648      16.43395321       7.73970751
H        8.93701411      15.37583133       6.65937365
O        9.94301423       8.59768990       0.07570651
H       10.08774626       7.66196613      -0.06466982
H       10.15342165       8.73721636       0.99901194
O       11.83820004       2.41047332       1.04247796
H       11.75092164       3.26677572       1.46123866
H       12.61414709       2.02317153       1.44761416
O        2.06482399       4.21342869       4.40518233
H        1.60321584       5.00435507       4.12664109
H        1.66421881       3.50952161       3.89502337
O        4.83757864       7.25639906      10.59673689
H        4.29047186       7.66737962      11.26606565
H        4.34614704       7.36850353       9.78300511
O        0.49317169       7.64987808       9.45019398
H        1.43134796       7.65404268       9.26035250
H        0.43722226       7.42447812      10.37879311
O       12.73096133       7.68865441       9.61159111
H       13.21451140       8.44273583       9.27428946
H       13.28448428       7.34211354      10.31141509
O        5.20512846       3.25744206       3.97742798
H        5.41006460       2.90449347       4.84325724
H        4.31142089       3.59032071       4.05934515
O        7.70153874      15.72251588      14.99132847
H        8.40318877      15.13729851      15.27670491
H        8.15451929      16.45136687      14.56728047
O       13.48976921       6.30354376       3.36730201
H       14.44137751       6.22649590       3.29847530
H       13.30232437       7.20467009       3.10449483
O        0.48026473       2.57169546      10.35727721
H        1.01801750       3.36000567      10.28230525
H        0.32576877       2.29964908       9.45264822
O        1.38454902       6.07626063      13.12770330
H        0.91429047       6.06857948      13.96138773
H        0.88291993       6.67527168      12.57472424
O        2.38640563       0.26303455       8.23405575
H        2.48104903      -0.66377083       8.01426891
H        3.28439801       0.59053286       8.28491236
O        4.72209886       9.80256436       5.85547262
H        4.90879070      10.18036094       4.99602644
H        4.86054559      10.52349590       6.46973808
O        7.65806529       7.99037664       2.79994314
H        6.88587700       8.12143478       3.35019841
H        7.30788088       7.67957913       1.96507332
O        3.96539879       4.30212306      10.72907341
H        3.84384580       4.13501044      11.66370172
H        4.28338024       5.20392946      10.68588947
O        3.07077744       7.74233981       8.58659410
H        3.73842024       8.07200692       7.98509221
H        3.03782847       6.80103668       8.41602262
O        2.79255125      13.51361701       7.32518293
H        3.46350164      12.86233632       7.52985552
H        2.91328813      13.69798436       6.39369856
O        0.59404042       9.32868952      13.30495981
H        1.39908273       8.94934232      12.95249078
H        0.82517285      10.23478554      13.50940940
O       12.30536827       0.42421346       8.12246345
H       13.13228730       0.54698121       8.58868748
H       12.20360028       1.22019367       7.60064871
O        6.24290284      14.15940433       6.71930719
H        6.36061615      13.73278348       5.87056102
H        7.04337271      14.66904025       6.84481044
O        9.63030797      13.61846362       0.16844816
H        9.88902275      12.77983232      -0.21364613
H        8.82577268      13.42496182       0.64960494
O       15.02882642       7.12072295      11.80928999
H       15.20522462       7.98501399      12.18093028
H       14.60931721       6.63515154      12.51954647
O        4.49622916       0.26570950       5.83480325
H        4.14044420      -0.39352627       5.23893656
H        5.23489277      -0.16936636       6.26061647
O       11.90568695      15.59763747      13.08342426
H       11.35337490      15.58416399      12.30175829
H       11.28756956      15.63257428      13.81345313
O        9.36159557       1.76141109       4.33518886
H        8.97596980       1.22123873       3.64545092
H        9.72750010       1.13197855       4.95660690
O        2.92462302       4.84953202       7.91022632
H        3.34207359       4.67575803       8.75389062
H        2.00350744       4.62878873       8.04824926
O       13.54981979       8.68659950       2.05498152
H       13.88781497       9.57653048       2.15505124
H       12.60729432       8.77019001       2.19951597
O        0.11473163      14.40049443       9.80830141
H       -0.22382708      14.83748318      10.58974282
H        0.78998270      14.99202612       9.47609952
O       13.71430101       5.25716538      13.29171287
H       12.91837028       4.88241382      13.66892286
H       14.39507562       5.07676350      13.93996663
O        1.85891624       7.88749874      15.23407041
H        1.19426620       8.41788556      14.79456843
H        2.57957189       8.49517611      15.40024945
O        0.07030516       5.90207671      15.74084950
H       -0.63468144       6.31948432      15.24587817
H        0.60745117       6.62996384      16.05371741
O        0.37745408       9.43499278       4.37255533
H       -0.20764248      10.15357692       4.13269978
H        0.28714887       9.35884550       5.32243869
O        9.08889058      14.88677821       4.87011987
H        9.50242074      14.03149096       4.75303715
H        8.66587381      15.06579420       4.03033303
O        1.99089728       2.24923608      13.20910872
H        1.59651090       2.36429706      12.34455554
H        2.43372526       3.07976530      13.38333969
O        5.38499961       2.60848969      14.17319582
H        4.83322220       3.26512590      13.74822238
H        6.27452641       2.95195177      14.08948375
O       10.75793659       7.92730884       2.66525461
H       10.46977695       8.80644421       2.91084951
H        9.99022669       7.37408635       2.80947055
O        2.50214306      12.65454976       0.34919656
H        2.20522698      12.25690679      -0.46930985
H        3.10420196      12.01157502       0.72381692
O        9.96808856      10.48754006       3.22884667
H        9.67044399      10.82501843       4.07368269
H       10.39230897      11.23516771       2.80775074
