391
Lattice="15.781866235591567 0.0 0.0 0.0 15.781866235591567 0.0 0.0 0.0 15.781866235591567" Properties=species:S:1:pos:R:3 charge=0 spin=4 spin_multiplicity=4 metal=Er geometry=box boundary=pbc pbc="T T T"
Er       7.89093312       7.89093312       7.89093312
O        6.79511736       6.08805267       8.51447936
H        7.07156344       5.36070845       9.08355225
O        8.82104603       7.91708626       5.89739205
H        9.51764522       7.36030641       5.53127489
O        8.38206248       7.62829366      10.01926873
H        9.16176653       7.23957577      10.43188963
O        6.11124829       7.70467313       6.38307731
H        5.19478838       7.94090175       6.52635714
H        6.13652376       7.37517405       5.48473253
O        9.49437037       6.18740133       7.94161261
H        9.34545887       5.24460555       8.01367730
H       10.44620963       6.27714661       7.89492588
O        6.02108760       8.68445341       9.05265739
H        5.44686500       9.41147168       8.81194038
H        5.65897743       8.35479367       9.87511256
O        7.54479764      10.06007778       7.08433429
H        7.93076203      10.46484009       6.30752620
H        6.98550449      10.74152351       7.45723472
O        9.93702621       8.98720460       8.18638516
H       10.42203753       9.11272915       9.00200728
H       10.47660435       9.41064247       7.51871186
O        0.53657371      14.36857931       7.10734694
H        0.28223510      14.99454918       6.42933113
H        0.80299286      14.91261031       7.84848320
O       12.11635794      13.75844068       1.83661145
H       11.65774525      12.92724711       1.71404110
H       12.87751916      13.53579692       2.37261070
O       11.21977106       6.27157386      11.00503553
H       11.23693019       5.33447064      11.19939333
H       12.14085278       6.53191239      10.99702636
O        7.68386080      12.95345170       6.08669589
H        7.35236788      13.76995570       6.46041436
H        7.28325912      12.90679849       5.21860971
O       14.37709073      13.87759425       0.32886584
H       13.73675340      14.42882099      -0.12096638
H       14.40267313      14.21978694       1.22244379
O       14.85373048       9.96083745       4.11383770
H       14.26117461       9.90233399       4.86329531
H       14.50418369       9.33256597       3.48191695
O       10.44638571      14.48812187      10.44695371
H       10.37273982      14.16953327       9.54733745
H        9.62044604      14.94417831      10.60840969
O        6.64332892       5.79801695       4.51761431
H        6.36452285       5.44557478       5.36276727
H        7.17400639       5.10175934       4.13052439
O        0.53175833      11.31259918      13.66767902
H        0.03877676      12.00157873      13.22213644
H       -0.12808806      10.66174989      13.90690648
O        1.44811133      10.91929091       1.67088350
H        0.52558366      10.92551088       1.41566624
H        1.91213919      10.62657656       0.88651861
O       13.86001032       7.16003274      11.60803379
H       14.02422190       7.79893917      12.30162227
H       14.03542016       7.63637619      10.79651660
O        3.46474710      15.50894101      12.18617942
H        3.12760329      14.87269828      12.81686245
H        3.85628251      14.97630327      11.49391581
O        4.37690696      14.03403593       0.08263252
H        4.26871369      13.08299998       0.07510336
H        5.25609961      14.17277063       0.43477567
O        2.10174835       5.53253074       6.05199766
H        1.77928858       5.72337193       5.17118487
H        2.62400250       6.29928471       6.28773225
O        9.15213969      10.34895778       4.72488284
H        9.56627576       9.84066595       5.42227985
H        8.45475822       9.78166097       4.39615004
O       13.83182805       9.43629098      13.46033004
H       13.17897934       9.48419567      12.76195654
H       13.37910310       9.00087144      14.18260547
O        0.27580792       1.14574273       2.00576899
H       -0.20721457       0.39685145       2.35517273
H       -0.27058397       1.90301532       2.21606870
O        1.51691220       6.15925248       3.41252608
H        0.59616227       5.90357257       3.35703562
H        2.00099635       5.34893457       3.25353156
O       11.77678792       4.71459659       8.08238305
H       12.35468619       5.25896934       8.61710143
H       12.33281061       3.99441725       7.78504094
O        7.62660644       5.16165631      12.31663358
H        6.79052371       5.61742535      12.41395831
H        8.28028612       5.86065867      12.29845631
O       14.65172943       5.69826381       0.37918402
H       14.52158764       6.32460394       1.09121842
H       13.79351083       5.62851375      -0.03893989
O        5.02468034      15.63110620       9.96130095
H        4.60296687      16.38082251      10.38119980
H        5.83346375      15.50215050      10.45675192
O        2.11173261       3.31425838      11.16845689
H        2.15276084       4.01490744      10.51758100
H        1.87072747       3.75661282      11.98238006
O        2.22694324       0.19024935      15.72855206
H        1.58049033       0.37547723      16.40974301
H        2.15480125       0.92753183      15.12238219
O       15.38983830      11.19623210       8.27839122
H       14.99208579      11.89521009       8.79748134
H       15.39709060      11.53620166       7.38362871
O       11.20099316       0.82377024       4.07946645
H       11.53351694       1.10127839       3.22585705
H       10.55693562       0.14519692       3.87708077
O       11.29880133       3.48472296       4.63459674
H       11.21697569       2.54183203       4.49144268
H       11.96286198       3.76626368       4.00531929
O        7.01923690       8.76196889      13.24060014
H        6.58251117       8.61168124      12.40219922
H        6.36847997       8.51529721      13.89779140
O        4.21101630       4.27706700      14.46659887
H        3.53650344       3.63395865      14.24825078
H        4.50145984       4.61699249      13.62023899
O       12.53352232      14.40607232       5.99505123
H       12.27886553      15.19143174       6.47939857
H       11.70439246      14.01103683       5.72538016
O       15.06043232       3.16639042      15.25498324
H       14.95278743       4.05667433      15.58970550
H       14.65474276       2.60949265      15.91944745
O        7.86857021       8.90174758       1.40688396
H        7.57981664       8.65332102       2.28502829
H        8.79044558       8.64595920       1.37606262
O        3.56591045       1.75314586       7.76900599
H        3.58912918       2.63649256       8.13696161
H        3.98171061       1.20496764       8.43447028
O        5.16323919       0.39068193       5.10790173
H        4.60940221      -0.38096043       5.22649558
H        4.57283614       1.05853347       4.75914622
O        4.63641325       7.55788639      15.50490384
H        4.88002628       6.79974123      16.03603513
H        4.89682473       8.31354217      16.03159355
O        5.42893970       5.44642742       1.24357781
H        5.18309572       4.90540905       0.49318345
H        6.34443258       5.22270611       1.41106931
O        3.29635465       2.14077284       4.14895916
H        2.75102831       1.54070550       3.64026455
H        3.29674358       2.95282669       3.64220455
O        8.30213204       5.10982590      14.95325644
H        7.51877800       4.73948733      15.35999668
H        8.20767609       4.90760171      14.02244213
O       10.15272525       6.47308076      13.49886960
H       10.54769408       6.45993731      12.62705614
H       10.72774779       7.03864794      14.01434481
O        9.74978723      14.69913421       2.79200359
H       10.33009426      14.30639379       2.13990655
H        9.77009080      14.08938171       3.52958172
O       10.65748626      14.20944081      15.36754121
H       10.87822872      13.34794831      15.72156844
H        9.70113553      14.21461168      15.32756156
O        1.22728530       4.81388593      13.35813526
H        0.57142810       4.30463975      13.83431959
H        1.64820327       5.35073735      14.02958924
O       14.84178853      14.78398126       3.15682376
H       15.56400081      14.23164727       3.45610360
H       14.61559116      15.31708099       3.91897286
O        4.14337698       6.67290489       3.89857357
H        3.91532723       6.96340400       4.78165648
H        4.97748355       6.21540071       4.00434687
O        6.65523196       3.74068949       9.88149003
H        5.74428272       3.55968177      10.11309211
H        7.02350716       4.15491412      10.66188940
O        1.43366138       7.90450878      12.96981218
H        0.72759740       8.49929360      13.22266888
H        1.51790329       7.30358260      13.71009784
O        7.46773352       0.26880145       3.39536418
H        7.29159065      -0.43353973       2.76932713
H        6.66786313       0.33112648       3.91743198
O        4.71719984       0.55066281       1.49667805
H        4.67999888      -0.16427953       2.13205620
H        3.94118998       0.42666447       0.95017558
O        9.39451591      13.57695083       8.10988653
H        8.92339570      13.14075019       7.39995232
H        9.68176591      14.40820940       7.73209231
O        3.91146217       5.56293037      12.08852767
H        3.63484952       6.33247196      11.59101082
H        3.50929530       4.82432757      11.63140672
O        0.17699928       5.28368774      10.87279823
H       -0.55174382       5.87616711      11.05755084
H        0.60689592       5.16081668      11.71915714
O        7.16075274      11.52466176      15.65440789
H        7.58485743      10.74069936      16.00336349
H        7.29186308      12.18951822      16.33043142
O       11.81699075       3.62002694      10.90002328
H       11.78273616       3.92415032       9.99306824
H       11.22299632       2.86981424      10.92417615
O       15.13862565       8.54260271      15.76438898
H       15.10823462       7.61598092      15.52631277
H       15.93419455       8.87186376      15.34619153
O        7.70953355      15.17632151      10.19635791
H        7.99533211      16.05145495       9.93426538
H        7.31976275      14.80419526       9.40526208
O        5.81935098       2.10620733      13.10062176
H        5.15631480       1.50105699      12.76834489
H        5.31768323       2.80439638      13.52144638
O       10.21230085       0.38900988       8.14711162
H       10.40731109       0.27397442       9.07714908
H       10.55907359       1.25550324       7.93457982
O        3.30493022       4.31732039       2.51326329
H        2.76972995       4.22278840       1.72531899
H        4.14126475       4.65795931       2.19586524
O       14.10143365       0.68552816       5.16379675
H       13.21686082       0.49578436       4.85113072
H       14.27086825       0.01531537       5.82586817
O       13.79871423       7.99319117       2.29383476
H       14.28618725       8.26812375       1.51729502
H       13.11252139       7.41808088       1.95527992
O       10.00134033       4.46385276       1.21084080
H        9.63662397       5.04306705       1.87996307
H        9.48280659       4.64607025       0.42716269
O       14.91934326       1.77623978      10.36775505
H       15.63683524       1.15030484      10.26955853
H       14.61011078       1.64808735      11.26451815
O        6.94625858       8.57360361       3.94461158
H        6.11684926       8.19258973       3.65627075
H        7.51445140       7.81975238       4.10303216
O        0.49646574       2.14946343      13.02117562
H        1.44417902       2.15622961      13.15543507
H        0.15149430       1.66286362      13.76980581
O       12.69269718       0.23199203      10.60384384
H       13.39246565      -0.24961186      10.16269349
H       11.90526158      -0.28796025      10.44313717
O       13.96794903       4.29305380      12.43909831
H       13.27532284       4.10346915      11.80620143
H       13.53176903       4.79159962      13.13006207
O        1.75480455       9.71185374       7.51279100
H        0.98339854      10.16505917       7.85304010
H        1.62375369       9.69365219       6.56477928
O        7.46055740       2.03116962       0.69963701
H        7.93301961       1.57013345       0.00648700
H        6.66967847       1.51015535       0.83851284
O        0.14875360       3.39261119       8.42789312
H        0.27042088       2.97400061       7.57572289
H       -0.39291940       2.77747696       8.92229384
O        2.06646710      12.99295151      10.51799325
H        1.71672019      12.17050809      10.86076980
H        2.79270719      12.72814409       9.95347203
O       12.38576708       5.12100604      14.49082808
H       11.58010835       5.27227547      13.99659797
H       12.19447816       4.35589369      15.03327022
O       14.28454351      12.97312377      12.94388049
H       13.69908861      13.25639601      13.64618473
H       14.89829165      13.69960642      12.83540006
O        9.47054636      11.76232397      12.46182401
H        9.89146338      10.96360602      12.77980254
H        9.41287628      11.64217756      11.51394699
O        2.39026200      13.81159871      14.02000305
H        1.84366354      13.17806979      14.48487193
H        2.43477021      14.56644885      14.60690349
O        3.72771975      11.34637625       8.42620396
H        4.41064641      11.33721188       7.75556319
H        3.04843376      10.76469683       8.08495415
O        2.40299141       7.20185330      10.52746313
H        2.68572497       7.19476870       9.61299969
H        1.71706884       6.53568484      10.57175355
O       14.11871216      10.82842840       1.11463863
H       14.26510397      10.60695260       2.03428516
H       14.53618242      10.11815104       0.62734355
O        1.87898294      14.01471681       1.80300282
H        2.67181391      14.06130303       1.26869896
H        1.65444328      13.08435696       1.81863402
O       13.02783729      12.02566023       7.21476347
H       13.73497642      12.06230170       6.57068001
H       12.53027887      12.83063437       7.07094385
O       11.00854163       0.87847575      12.63955088
H       10.80016924       1.80573570      12.75357620
H       11.74234251       0.87121393      12.02496534
O       14.18527783       8.93199640       9.34804953
H       14.55225107       9.77914936       9.09527622
H       13.69516496       8.64342097       8.57814991
O       10.79054637       9.69933617       2.65316487
H       10.09202308      10.04962421       3.20597167
H       11.53148552       9.58262152       3.24782334
O        8.17655552       3.68194564       3.59095442
H        8.71004906       3.59339758       2.80115968
H        7.79457452       2.81396854       3.72110095
O        7.39243014      13.89939016       1.69578836
H        6.90843082      13.40497683       2.35725034
H        8.29472897      13.90803121       2.01518467
O        9.19181990       0.98885253      14.66087024
H       10.04807841       0.80232341      14.27582467
H        8.74399982       0.14293401      14.67140001
O        8.96704955       3.54588381       8.31939292
H        8.45455327       3.45111025       7.51652471
H        8.31385628       3.67272482       9.00749303
O        2.60690706       9.78763401      14.54325957
H        1.81596077      10.31806587      14.44693797
H        2.40597707       8.97170724      14.08486838
O        7.62458650      14.55552744      14.84821230
H        7.58017741      14.38288846      15.78866721
H        6.72298167      14.45489249      14.54290397
O       13.62454716       1.61381250      12.75869292
H       13.05199628       2.25946537      12.34450733
H       13.93600254       2.04479493      13.55460845
O        8.48927269       6.27713895       2.57819871
H        7.55267356       6.45365644       2.48956754
H        8.64568039       6.27981704       3.52252984
O        4.02605960      12.73303861       4.68513915
H        4.53824001      13.34950148       5.20847135
H        4.62269348      12.45448345       3.99039684
O       10.90299265      11.59742797       0.70817044
H       10.81526637      10.84617176       1.29481348
H       11.69722241      11.41760778       0.20508434
O        0.83898311      15.62005074       9.50333649
H        1.22646783      14.78851364       9.77652779
H        1.58762186      16.16694309       9.26525956
O       14.16625408      14.39071873       8.99370697
H       14.03206837      14.35332034       8.04669726
H       15.02805967      14.79395050       9.09823974
O        6.09586615      11.60653544       2.37408997
H        6.56228496      10.77066213       2.37302100
H        5.42446216      11.50757534       1.69906743
O        3.41557185       8.01181366       6.18994300
H        3.03361200       8.15894618       7.05521206
H        2.80605125       8.43288459       5.58379470
O        3.09252216       1.89154649      13.79083169
H        3.25657409       1.28482148      13.06888739
H        3.78999272       1.70940383      14.42058617
O        5.64029633      11.58251636      11.90164178
H        6.01909266      10.78592051      12.27336778
H        5.02692917      11.89055413      12.56881890
O       14.96862557       6.12578676       8.36362692
H       14.58635211       6.93211351       8.70994472
H       15.39869922       5.72121107       9.11701063
O       10.23292443       7.62520025       0.98420786
H        9.74629073       6.93647175       1.43705721
H       10.76132370       7.15929078       0.33616896
O       11.27556711       0.85834019       1.33630887
H       11.56449346      -0.00378186       1.63547267
H       11.80611452       1.03284549       0.55894204
O       12.50593034       8.73502891       4.73321362
H       12.60129645       8.06342853       5.40855803
H       12.77249350       8.30033466       3.92314151
O        4.36951000      11.31516819       0.16077029
H        5.16564203      11.30002666      -0.37043246
H        3.73311026      10.81098565      -0.34620820
O        0.25083366      15.05464800      12.84586914
H       -0.12495578      15.51509092      13.59620671
H        0.96932041      14.54093450      13.21479605
O       15.35545288       0.46308085      15.19595728
H       15.39522631       0.69340707      16.12418126
H       14.42343511       0.33337112      15.02060019
O        1.32677393      10.10232876      11.35263166
H        1.46865422       9.18794005      11.59757068
H        1.01128926      10.51936320      12.15436949
O       12.89154999       4.05217480       2.20155143
H       13.39897721       4.58787699       1.59181982
H       11.97989822       4.20184195       1.95110656
O       12.66313259       0.19896556      14.87356139
H       11.92238257      -0.40716210      14.88498546
H       12.67000507       0.55279312      13.98418483
O        1.50467975       8.75077117       4.23852948
H        1.39479984       7.92844392       3.76110289
H        0.65826291       9.19034185       4.15736311
O        6.65164305       3.15660405       6.36168680
H        7.15771631       3.39801527       5.58590183
H        6.15947192       2.38011674       6.09510307
O       10.64249061       9.45243688      13.29212882
H       11.15192608       9.02235575      13.97896037
H       11.24393520       9.51384189      12.55001989
O        6.28122922      14.49852256       7.83133938
H        6.11680766      13.56567902       7.96918101
H        5.66281476      14.93981770       8.41362281
O       12.25223819       9.78200574      11.12452266
H       11.47150076      10.00049257      10.61565685
H       12.86880036       9.43377327      10.48045972
O       10.97577645       6.83160685       3.53571040
H       11.87118688       6.64801184       3.25151876
H       10.81816804       7.73562612       3.26342271
O       15.44032296      12.25771858       5.63371946
H       15.26338675      11.55085987       5.01301327
H       15.30879537      13.05970417       5.12800073
O        4.55454045       5.28090482       7.20042935
H        5.14532711       6.01503834       7.03234923
H        5.09474901       4.50234265       7.06534606
O        2.11452965       6.56719816      15.24370451
H        1.76311770       6.67903355      16.12701325
H        3.01003437       6.90095427      15.29764891
O       10.53341636      13.01830345       4.78175889
H        9.87466744      13.34523851       5.39445389
H       10.26291504      12.11915076       4.59578761
O       12.82893073       6.47313311       6.21036451
H       12.23427815       5.85306705       6.63242875
H       13.62785907       6.43535218       6.73621425
O        0.68647556       2.27266998       6.00818545
H        1.42145540       1.94625428       5.48906189
H       -0.05533069       1.72943069       5.74201558
O       12.15171145       7.80742959      14.84684271
H       12.39003394       8.13779751      15.71303626
H       12.49766546       6.91516016      14.82676963
O       14.71895433       6.31056143       4.26106261
H       14.52683247       6.81848772       3.47281651
H       13.93412769       6.40034826       4.80163389
O       12.96536993       2.56414264       6.91566944
H       12.37305522       2.78420070       6.19666348
H       13.53163322       1.87967368       6.55918668
