391
Lattice="15.781866235591567 0.0 0.0 0.0 15.781866235591567 0.0 0.0 0.0 15.781866235591567" Properties=species:S:1:pos:R:3 charge=0 spin=8 spin_multiplicity=8 metal=Gd geometry=box boundary=pbc pbc="T T T"
Gd       7.89093312       7.89093312       7.89093312
O        6.98436834       6.87321839       6.07563782
H        6.48367724       6.05196430       6.01124721
O        6.77130274       9.57203385       8.92690037
H        7.09812440      10.26831578       9.50799854
O        9.91712827       7.22754712       8.67026116
H       10.31207812       7.33835692       9.54263253
O        7.01409127       9.48817205       6.31356944
H        7.46901930      10.23213685       5.91886866
H        6.13283454       9.52079977       5.94134124
O        5.57053000       7.34048750       8.23855213
H        4.89341723       7.21040537       7.57460275
H        5.11944105       7.20293782       9.07151713
O        9.32797301       9.76772947       8.36066900
H        9.81389648      10.30466338       7.73471996
H        9.54075179      10.14331151       9.21500802
O        7.88441174       7.62004491      10.28565169
H        8.63263540       7.65701696      10.88149249
H        7.13301732       7.45136449      10.85414547
O        9.49607698       7.63842466       6.11108687
H        9.32809204       7.61974042       5.16892776
H       10.44449790       7.53433693       6.18786809
O        8.05251571       5.49074011       8.03606956
H        8.08003035       4.86076992       7.31592211
H        8.10356403       4.95371399       8.82678371
O        9.86592970       1.64010390       5.95275260
H        9.51360654       1.49889014       5.07402687
H        9.33240369       2.34779142       6.31436043
O        1.12366030      10.13288483      12.06352743
H        0.90672138       9.29121412      12.46447601
H        1.98770268       9.99775006      11.67442436
O        0.18331199      14.72604438       0.28419082
H       -0.14647157      15.52700634      -0.12315988
H       -0.18689849      14.73571484       1.16684734
O        7.45525224       1.68275185      12.81890874
H        8.17289644       2.31078668      12.90131566
H        7.71499003       0.94736691      13.37386561
O       15.44905964       7.43260320      13.23211058
H       16.31287362       7.17345878      12.91132808
H       15.48230453       7.26419513      14.17379277
O        5.26884746       8.01131648       2.78907424
H        4.93516341       7.92254755       3.68182666
H        4.93536190       7.24016674       2.33043790
O        3.32302479      10.84326018      13.79995688
H        2.46838944      10.58374448      13.45574495
H        3.52209077      11.66588270      13.35285872
O        5.40464399       6.27662999      14.90507763
H        5.80092563       5.48369362      15.26624880
H        4.80392680       5.95903988      14.23090613
O        3.39395206       2.03819523       6.41668200
H        4.05697525       2.54593952       6.88447238
H        2.84848566       1.66175401       7.10732680
O        1.88142736      12.18037077       6.52514688
H        2.47449587      12.92438907       6.62973349
H        1.87369924      11.75710207       7.38364308
O        3.84133769      14.72732402       6.96581977
H        3.64974716      15.65206640       6.80969019
H        4.79518117      14.68834590       7.03578513
O        2.13667374      12.21518510       0.04510965
H        2.64515287      12.80671683      -0.50966149
H        2.74185136      11.95952767       0.74126421
O        5.76161687      14.21422074      12.61031639
H        6.44070771      13.54183280      12.66473993
H        5.64521224      14.36233622      11.67183697
O        2.20473331       6.03623263      15.20815156
H        2.50420096       5.82592040      14.32366316
H        2.96092293       6.44843258      15.62588389
O        4.72092862      14.46588663       1.05373022
H        5.14419422      13.92589847       0.38627920
H        4.57512021      13.86939636       1.78801294
O       11.13021366       0.62372964      14.99723166
H       10.28689815       0.50898200      14.55918627
H       11.49889243       1.41501934      14.60458880
O       14.21243914      11.26399145       0.74947529
H       14.51804006      11.49429960      -0.12790608
H       14.89045491      10.68338327       1.09504816
O        2.69725233       0.17775771      15.48414203
H        1.92043384      -0.32359555      15.73199238
H        3.38127439      -0.12989562      16.07886473
O        7.10066627       2.17673049       5.88453242
H        6.70681503       2.07251571       6.75070349
H        6.54062946       1.66271548       5.30282873
O       12.27662613       2.84959493       5.60050735
H       12.36512781       2.93942672       4.65165038
H       11.43356382       2.41306226       5.72264253
O       10.87886317       0.35048752       1.90990837
H       11.75987311       0.31812937       2.28274381
H       11.01955398       0.37450869       0.96340907
O       13.41031648       3.89674407      12.44083896
H       12.85788343       3.84457304      11.66088528
H       13.21765385       4.75676815      12.81429783
O        6.98841723      11.82298781      13.02907772
H        7.55728364      11.08600832      13.25152790
H        6.47025538      11.97337287      13.81972586
O        1.97678519       8.82664760       9.47112243
H        2.67010851       9.15195491      10.04532603
H        2.31004528       7.99207815       9.14148115
O        5.28122541       9.08199583      14.47950266
H        5.74977844       8.63284857      13.77597112
H        4.73915348       9.73085426      14.03075707
O        1.71695321       3.43789769      10.84953630
H        0.87395762       3.05410113      10.60810209
H        1.64447344       3.60442625      11.78934839
O        0.83067043      13.67081172      13.64411349
H        1.77534926      13.51747846      13.66151067
H        0.61975595      13.96987780      14.52859436
O        1.98055985       2.86724901      13.49601591
H        2.83660514       2.64479093      13.86198134
H        1.35577553       2.38165273      14.03459984
O        6.36084383       4.13267233      12.37326591
H        5.46027421       4.39137171      12.56892078
H        6.37712148       3.18752353      12.52380038
O        3.44401800       8.96880713       0.72094391
H        4.09994792       8.89224991       0.02803210
H        3.85754159       8.57224351       1.48773422
O       15.64683393       9.30976908       7.82636686
H       15.68366478       8.40830373       8.14610980
H       15.84438817       9.24135085       6.89227741
O        4.64153274       3.88836518       8.05183537
H        4.18166998       4.71967903       8.16877707
H        4.27659678       3.31531040       8.72612152
O        0.41204534       9.59550601       1.60930201
H        1.32955434       9.42002227       1.40046111
H        0.20825045       8.99036840       2.32239945
O        5.05726820      12.40791766       9.94716319
H        5.34053297      12.07411990      10.79838112
H        5.21267330      13.35118177       9.99547386
O        4.67046727       9.98733000       5.02645336
H        4.29880680       9.10640697       5.07200498
H        4.34813793      10.34122537       4.19754220
O       14.64803563      14.97631886       2.91694979
H       13.95911500      14.97284875       2.25241374
H       14.22769829      14.62135397       3.70024302
O       15.77523663       2.39798724       4.55866210
H       15.51413993       2.96099466       3.82990768
H       16.43580541       1.81400185       4.18604730
O       11.81356520      11.99327396      11.19373488
H       11.10672457      12.48055560      10.77045629
H       12.24916610      12.63800154      11.75123829
O        0.19474722       9.76658848       5.16535922
H       -0.57429884      10.21919666       4.81902725
H        0.74529916      10.46517017       5.51906536
O        8.22772897       3.17352353       9.44964929
H        7.46254577       2.67804378       9.15771380
H        8.97434936       2.70105893       9.08145500
O        1.78172186       6.23127195       6.52547474
H        1.06074844       6.50613895       7.09193508
H        1.86299618       5.29013997       6.68006103
O        0.35502664       1.54197222      15.25765647
H        0.22880129       2.38244456      15.69800322
H       -0.31193350       1.52813487      14.57121307
O        4.34714111       3.12820504       2.75993677
H        5.18488089       2.74549996       2.49924397
H        3.74372055       2.88608917       2.05744451
O       13.31151061       2.77203642       2.09838762
H       13.87333798       2.61016444       1.34050945
H       12.64614926       2.08527769       2.05493016
O       10.40660421      14.98532472       4.37681296
H        9.53011582      15.36939809       4.39889470
H       10.80651494      15.25226549       5.20448793
O       13.67206621       5.05739180       6.36046305
H       13.20524792       4.28221750       6.04834555
H       14.57889511       4.76757238       6.45995124
O        2.91212060      15.07875929      11.32103229
H        3.11636097      15.26914564      12.23660356
H        3.75687879      15.12105179      10.87289526
O       13.89028503      13.82490597       6.19830607
H       14.76903447      13.95946303       5.84344602
H       13.49875187      13.16513601       5.62591002
O        7.06169043       7.33012324      13.02285845
H        6.41890328       6.83834664      13.53394778
H        7.90001674       6.91754641      13.23075557
O       14.33164793       9.42743521      11.53824545
H       13.55057545       9.73385915      11.99896444
H       14.66998335       8.71826302      12.08490421
O        3.49557623       5.17545369      12.71165725
H        3.05337851       4.41430356      13.08761401
H        3.05982553       5.31514033      11.87091900
O        6.11908197      12.93687294       5.20288823
H        6.58338104      13.66346643       5.61848432
H        5.19748168      13.09072540       5.41076844
O        8.83082839       1.22688490       3.47068501
H        8.07138453       0.69039257       3.24341240
H        9.53407012       0.89636870       2.91171993
O        9.31664042      12.86295660       3.07070449
H        8.36325598      12.88737928       3.15251819
H        9.62225962      13.59553347       3.60564362
O       13.52851220       5.96045506       3.51981021
H       12.58591407       6.01937835       3.36402622
H       13.60360841       5.61582085       4.40965271
O       13.43128444       9.55266696      14.18507148
H       13.69556430       8.69557840      13.85072557
H       14.21538254      10.09522349      14.10108092
O       11.83371938       5.95211466       0.00905010
H       11.38271940       6.60523012      -0.52599294
H       12.73685278       6.26524654       0.05935237
O       14.12638289       1.34706362      13.43604722
H       13.92522540       2.15013321      12.95558210
H       14.53943735       0.77663928      12.78779270
O        0.27795239       4.11508230       0.35417733
H       -0.19668676       4.58275791       1.04136656
H        0.92377031       4.74613295       0.03648858
O        2.05277174       1.25519131       8.64972903
H        1.31415819       1.70591083       9.05903793
H        1.71760963       0.38229962       8.44489179
O        8.75716316       5.35169506       4.68259608
H        9.43022936       5.89411068       4.27150116
H        8.26251245       5.95899456       5.23281407
O        3.51360333      13.77883111      14.07839853
H        3.38613713      14.64394104      14.46771717
H        4.18593807      13.91296841      13.41041274
O        3.64367282       7.28448182       4.84550793
H        3.11787937       6.90717662       5.55078367
H        3.00186133       7.65304393       4.23848913
O       11.60863830       5.15976939       8.15898522
H       12.20234137       5.39823057       7.44702681
H       11.01378477       5.90578099       8.23545625
O       15.02428024      14.93657531      11.83478204
H       15.42032354      14.71697507      12.67808346
H       15.45044608      14.35029611      11.20956912
O        5.33938864      15.12328349      10.08173400
H        4.94581546      15.65505885       9.38996311
H        6.25320080      15.40662190      10.11170951
O       11.46861077      13.60192610      14.91779071
H       11.30635430      14.54077597      15.00979938
H       12.19700293      13.54372631      14.29949508
O       13.27518738      15.22053695       0.58155998
H       12.70069764      15.69577664      -0.01872380
H       13.23641556      14.31217857       0.28220458
O        3.71928255       9.79571731      11.32126519
H        3.83088602       9.96843006      12.25611641
H        4.24822023       9.01511111      11.15661183
O        5.05378509       7.11250616      10.89926618
H        5.39709502       7.14796810      11.79207779
H        4.33081420       6.48683103      10.94482448
O       10.09468184       4.26496995       2.02137623
H        9.66972078       4.69737998       2.76209312
H       10.49004139       4.97897542       1.52125739
O        4.59443402       1.94826389      14.66902893
H        5.19552931       1.92876021      15.41370060
H        3.86291467       1.39185189      14.93645551
O       12.99617503      14.33807638       9.46103745
H       12.63930560      13.63966176      10.00975692
H       12.91205783      15.12870624       9.99401077
O        6.18566177       1.67824786       8.41894901
H        5.43675295       1.75263064       9.01041721
H        6.25444454       0.74131543       8.23548675
O        8.52049169       5.15246243      13.74965877
H        8.37892150       4.91257900      14.66543476
H        7.78285746       4.76060392      13.28213926
O        4.10822449       2.22995846      10.14080579
H        4.43255020       1.84895302      10.95682021
H        3.26757163       2.62230243      10.37660403
O       12.13948981       9.34426950       8.83078667
H       11.21681317       9.25980050       8.59044389
H       12.61715490       9.11155531       8.03460075
O       15.55208457       7.08797460       0.14635632
H       16.41593330       6.67883410       0.09535368
H       15.70135311       7.90535493       0.62158272
O        1.78967696      11.87074284       2.72079682
H        1.36457167      12.22347463       3.50252415
H        1.21835324      11.15649483       2.43853661
O        3.14321985       6.40508931       9.03328207
H        3.02501028       5.59053390       9.52191058
H        2.84622925       6.19858516       8.14706287
O        9.86663031       9.24744589      14.66148986
H        9.02838017       9.63691009      14.91025917
H       10.49770198       9.96223650      14.74548257
O       11.79704646      12.55194582       1.99864180
H       10.95247832      12.72331453       2.41525826
H       11.65386731      12.75377942       1.07398253
O       12.80851178       1.26073530      11.03875926
H       12.20031088       1.91713963      11.37854871
H       12.87833703       1.45888664      10.10490043
O        8.48644246      11.44354769      10.69665472
H        9.32737925      11.29389381      11.12869738
H        7.88718834      11.66710886      11.40879709
O        1.13520344       5.95025292       3.79049524
H        1.42651065       6.04966767       4.69685535
H        0.17955135       5.96656396       3.84240730
O       11.50793434       3.54821041      10.35002422
H       11.51933740       4.21276086       9.66120311
H       11.00466561       2.82448666       9.97696075
O        7.90272030       0.24713410       9.98785241
H        8.58313487       0.66776808       9.46217674
H        7.74545651       0.85661800      10.70898300
O        8.70263254       9.83554875       1.89019267
H        8.07223091       9.29331743       1.41605046
H        9.49224110       9.81393759       1.34956052
O        7.72486150      15.38489441       6.50488417
H        8.41950120      16.02701245       6.35862436
H        8.16898708      14.63822171       6.90671023
O        0.58997573      13.56543984       4.47781750
H        0.95770349      13.15881067       5.26245809
H       -0.21100280      13.07095600       4.30417715
O       15.45868062       2.40874899       9.29975185
H       14.63069320       2.14903260       8.89575177
H       15.68691650       3.23330684       8.87051464
O       12.28831464      10.17059205       3.21774514
H       11.47554844       9.97324764       3.68325359
H       12.11125413      10.99493134       2.76459377
O        7.49873654      10.42353141      15.30492866
H        6.96904661      11.19264709      15.51497982
H        6.87243578       9.70006363      15.28097949
O        6.94317064       5.86884071       2.71945573
H        7.66950520       5.57157190       3.26745318
H        6.62083255       6.65767924       3.15541877
O        9.48370796      13.70688314       9.48799395
H        8.74048136      14.01156071       8.96740040
H        9.16370838      12.91702589       9.92383523
O        5.71952754       4.50636749       5.63224856
H        6.20381911       3.68221549       5.58257974
H        5.18770113       4.42487171       6.42392460
O        1.18964181      14.48681681       9.03659344
H        1.75844187      14.73007442       9.76702076
H        0.66366160      13.76140636       9.37327777
O        0.29914613      12.60953853      10.79193432
H        0.53045640      11.79324618      11.23509818
H       -0.49990727      12.40161878      10.30766695
O        6.93625030       8.00809243       0.64006945
H        6.41210855       7.44779117       0.06773235
H        6.46395176       8.00944784       1.47263422
O        9.32418991      14.79797859      11.97445020
H       10.21980817      14.86503406      12.30551413
H        9.42114121      14.44609490      11.08957159
O       11.80815044      15.51670721       6.64654939
H       12.50165177      14.92046108       6.36409885
H       11.44105781      15.10454115       7.42859413
O        3.02528399       3.59172368       0.38400297
H        2.85384363       4.50310786       0.14689765
H        3.84637311       3.37874822      -0.05948992
O       10.04715374       1.23325015       8.63604308
H        9.76472481       1.08848231       7.73298826
H       10.96799731       1.48391439       8.56224331
O       10.84879820      11.89562413       5.83133264
H       10.37514045      12.15232041       5.04013911
H       10.30783558      12.22070198       6.55099622
O        4.48506921       5.57787076       1.58583556
H        5.41693408       5.55531092       1.36823326
H        4.32732607       4.75638817       2.05114760
O       10.92892257       2.88291936      13.49591759
H       11.69769761       3.33470179      13.14790982
H       10.24172318       3.54920760      13.50290407
O       10.08426538       7.40286313       3.30364378
H        9.67945431       8.16290467       2.88567646
H       10.87268142       7.75001574       3.72091712
O        4.52495522      11.42993676       1.80142473
H        4.27599712      10.58387231       1.42936740
H        3.84804520      11.61427120       2.45261247
O       15.58808811      11.20995330      14.18547908
H       15.83434953      10.97834690      13.28996491
H       16.38715438      11.57247129      14.56797829
O        2.30499654       0.35041977       3.16919010
H        1.84386811      -0.39906255       3.54584466
H        1.86786710       0.50502842       2.33178587
O        8.61546256       2.23345259       0.00730036
H        9.37676538       1.65758271       0.07817874
H        8.27398897       2.07265801      -0.87234316
O        5.54483558      12.40809467      15.25917499
H        4.80302778      12.60866536      14.68845227
H        5.17896233      11.84090246      15.93789556
O       12.91683364       8.49091607       6.02915390
H       12.67519972       9.07607386       5.31121572
H       13.75187923       8.83379297       6.34753439
O        6.79470336      15.50590351       2.47366740
H        7.04790199      14.77708315       3.04018587
H        6.09430611      15.15181008       1.92567709
O       14.03803813       6.57209076      11.07179998
H       13.24697940       7.11003056      11.03895632
H       14.29676615       6.58179326      11.99331911
O       11.54203208       7.63156521      10.85762884
H       11.47718662       8.13393399      11.66981879
H       11.88931303       8.25324670      10.21798839
O        8.95874315      12.71853145      15.48221824
H        8.85722777      11.81107692      15.19507238
H        9.80086160      12.99244914      15.11884865
O        8.23499699      15.12663236      14.44508686
H        8.24690216      14.21365085      14.73241049
H        8.90255480      15.17151939      13.76055522
O        3.19210773       7.83997174      13.16636885
H        2.46361514       8.09775257      12.60149769
H        3.40953532       6.95070068      12.88680836
O        0.20065270       6.79919820       9.10624165
H        1.07613774       6.43615519       9.24024746
H       -0.26905138       6.59801465       9.91564581
O       12.83768782       1.67959430       8.24541595
H       12.66281979       2.28141275       7.52190537
H       12.78142846       0.80873578       7.85213213
O       11.94815207      15.02915749      12.65252015
H       12.38810056      15.51907460      11.95778395
H       11.78538735      15.67770649      13.33744619
