391
Lattice="15.781866235591567 0.0 0.0 0.0 15.781866235591567 0.0 0.0 0.0 15.781866235591567" Properties=species:S:1:pos:R:3 charge=0 spin=1 spin_multiplicity=1 metal=La geometry=box boundary=pbc pbc="T T T"
La       7.89093312       7.89093312       7.89093312
O        6.75340173       5.81013818       7.52172485
H        6.95188878       4.92773749       7.85529330
O        8.73407922       9.14492857       6.02636881
H        8.55106776      10.05197317       5.75604882
O        8.18531840       8.71773260      10.12470569
H        8.99365008       8.87259336      10.62661608
O        9.13904538       6.41193899       6.24582153
H        8.94746240       6.27627319       5.31785461
H        9.90641328       5.86530837       6.41485795
O        6.17975578       8.06938002       6.02234306
H        5.95970665       8.84153029       5.50119607
H        5.61039666       7.37955170       5.68146343
O       10.26524060       8.69874730       8.29305279
H       10.70911349       8.81837616       9.13263461
H       10.91669423       8.95178300       7.63897868
O        7.30595100      10.35618833       8.06957432
H        7.81961619      11.05200103       8.47972623
H        6.52241916      10.79765856       7.74183399
O        8.70744777       6.07595152       9.46914274
H        9.02015568       5.20000959       9.24293192
H        8.77141819       6.11459775      10.42342053
O        5.74815817       7.73339255       9.24566427
H        4.84872172       7.82992364       8.93273034
H        5.65907978       7.56418412      10.18356906
O       10.64482804       8.44076985       4.20662739
H       10.18354741       8.91248336       3.51313017
H        9.99467686       8.34020092       4.90191235
O        3.78165507       1.86327120       0.42803921
H        4.67615787       1.58916886       0.22564234
H        3.88537117       2.56625255       1.06935975
O        3.67182479       6.52388369       1.33719797
H        3.49084761       5.64054055       1.65842061
H        4.61905823       6.54011923       1.20038766
O       14.34979812      10.31245545      14.14689647
H       14.11706734      10.66373318      13.28743607
H       15.28427406      10.11593762      14.08081093
O        3.35149404       7.87952817       7.96775763
H        2.69989608       7.67023366       7.29854335
H        2.88121436       7.79065337       8.79671489
O        1.81490656       4.88978828       5.22361423
H        2.72481393       5.07785573       5.45368170
H        1.35961725       5.72302904       5.34466513
O        0.54793495       0.21923295      12.34485720
H        0.69407158       0.96931111      11.76843836
H        1.05645408      -0.48928014      11.95033302
O        6.72157981       9.40038408      12.52332770
H        7.00744487       8.76331509      13.17804604
H        7.23184099       9.18703828      11.74207938
O       11.41003740       3.70012333       1.81479356
H       10.70880372       3.71876870       1.16352134
H       11.68212650       4.61380713       1.90070799
O        6.70139988      14.43219535      14.19929510
H        5.88692538      13.95088187      14.05369133
H        7.30524331      14.08650027      13.54195207
O       15.35201383       6.39048006       9.62570959
H       15.56414840       7.31946569       9.71635427
H       14.47043519       6.38088610       9.25293766
O        1.44955501       2.52415690      10.19221894
H        1.91827831       3.29614378      10.50934126
H        0.56529933       2.83991506      10.00615299
O       12.84557796       0.27058186       5.83914985
H       12.17311558       0.42427597       5.17552020
H       13.65643098       0.57983133       5.43527613
O        6.33240464       6.69698871       0.76780075
H        6.91249989       6.90227644       1.50099806
H        6.90029188       6.72366645      -0.00227990
O       11.47247903       3.96024227       7.96844526
H       12.24599378       3.67347649       7.48298449
H       11.62513781       4.89031069       8.13547786
O       11.59423752       1.11570799       2.76394732
H       11.15063988       1.05235643       3.60978392
H       11.58809700       2.05072781       2.55917407
O        4.88441615      14.66532585       2.11368119
H        4.49091742      13.93980732       2.59846304
H        4.20348644      14.94132718       1.50017501
O        0.72195684      15.47502546       8.75122445
H        1.55416142      15.00469649       8.80080310
H        0.87969287      16.29235517       9.22379544
O       10.22524176      10.58002217       1.41803453
H        9.68701196      10.01854238       1.97596011
H       10.68108681      11.15911855       2.02884097
O        4.30259930      13.16510098      14.00211651
H        3.67158792      12.44785206      14.06220351
H        3.87946596      13.89545019      14.45353654
O        5.77938212      11.16379686      15.10316900
H        5.38355418      11.99329675      14.83580780
H        5.83730067      10.65403877      14.29507001
O        2.23431014       0.26256090       5.02686459
H        1.87046570      -0.40403959       4.44420445
H        2.90309966      -0.19958276       5.53221166
O       13.12352208       0.02590550       8.87530200
H       13.71435738      -0.71904877       8.98570412
H       13.06500880       0.14741813       7.92765084
O        0.30485012       5.98473769       2.52980586
H        0.75375169       5.59418527       3.27959785
H        0.15031683       6.89309767       2.78910001
O        0.12965467      14.10454045       6.39977262
H        0.37191969      14.59461576       7.18549884
H        0.92579916      14.09405171       5.86847630
O       15.44432019       0.28243117       4.14167783
H       15.62024078      -0.41993300       4.76775159
H       15.16055325      -0.16977685       3.34718675
O        2.69795488      10.32930495       6.98293262
H        2.41530747       9.49461904       6.60924596
H        2.76684677      10.16049827       7.92260812
O       10.06667599      11.19113974       9.77123153
H        9.85516010      11.74998337      10.51901938
H        9.32232086      10.59355687       9.70008393
O        8.64475974      11.98613310       4.60008558
H        9.42568560      11.65064671       5.04035314
H        8.51093419      11.39114500       3.86231074
O       13.86392000       9.97570634       1.86756659
H       13.48304544       9.54231474       1.10380084
H       13.31494548      10.74788766       2.00392945
O       15.43284817       9.57117742       7.37734254
H       15.19928296      10.14316194       8.10844639
H       16.37042331       9.71565688       7.24963041
O       11.35185038      10.87609015       5.19036332
H       10.95655053      10.02986756       4.98089447
H       11.59394197      11.24475030       4.34082627
O        2.28024648      15.08509015      15.08282446
H        2.89619497      15.81486282      15.01747048
H        1.77862149      15.26490763      15.87797846
O        4.82345181       3.07715678      14.00997281
H        3.87866647       3.23065129      14.00276683
H        5.20782235       3.95018239      14.08945494
O        9.05463854       1.81360114      12.17160075
H        8.18899435       2.19904528      12.03623162
H        8.88082689       0.88871571      12.34655298
O        4.52904603       1.54750807       9.59753809
H        4.45383294       0.59336548       9.58387259
H        3.65027813       1.85433785       9.82081888
O       12.44783615      11.48167302       8.45744090
H       12.18296468      12.09286822       7.77004336
H       11.63885494      11.28773800       8.93090731
O       12.78877742       2.44849258      10.13452128
H       13.02128959       1.61157902       9.73234519
H       12.47201434       2.98438639       9.40739624
O       15.37984381       9.02360481       3.95942927
H       16.12536936       8.74958604       3.42525962
H       14.75432195       9.38463401       3.33124764
O       10.38934305      14.44424100       3.30792574
H       10.77395550      15.10419542       2.73106763
H       10.50549082      14.79892984       4.18936624
O        0.12429878      12.09627279      12.49520507
H       -0.08039470      12.77197135      13.14155162
H       -0.71083582      11.91628268      12.06348109
O        4.25274513       9.83852723      10.10019722
H        3.32829113      10.05076207      10.22893348
H        4.72482094      10.55086423      10.53141906
O        4.66623220      10.67847880       1.90653284
H        5.03991611      10.80715248       1.03473283
H        5.26681504      11.13593337       2.49497773
O       12.01223934       6.61597244       8.20115987
H       12.25753480       7.49650920       7.91705251
H       11.65190867       6.73883503       9.07939585
O        7.61814215       3.50545266       8.67889754
H        8.25716793       3.27997213       8.00285285
H        7.88143765       2.98823495       9.44007634
O        3.22110106       3.94740071       2.08351008
H        3.41484702       3.53122235       2.92344455
H        2.27011356       3.88159014       1.99677152
O        4.59283015       7.17877802      11.67128553
H        3.94954149       6.60201502      11.25927101
H        5.10457178       6.60149903      12.23794355
O       10.35575170       7.65348822       0.52200018
H        9.81879099       8.26925993       1.02072881
H       11.09400471       8.17684952       0.21005904
O        1.18635291      13.93285494       3.23385494
H        0.84254048      13.47588410       4.00145021
H        1.06387172      13.31582667       2.51239370
O        1.86879499       7.80181610      15.53338686
H        2.30544437       7.24286128      16.17614549
H        1.92101401       7.31070220      14.71344043
O        4.21505232       0.37153469      12.57394215
H        4.28482316       0.75513090      11.69974663
H        4.52160998       1.06050123      13.16350076
O       12.44426456       6.19228737       1.47143673
H       11.63946796       6.68423047       1.30856789
H       12.63546367       5.76218296       0.63795912
O       12.73893164       9.19016576       7.02028782
H       13.67306337       9.39065254       6.96168066
H       12.32736783       9.77635592       6.38528532
O       14.86603899       2.94988977       0.16789299
H       14.91291934       2.73746337       1.10004593
H       14.38438725       2.21967204      -0.22072701
O        6.41599178       1.49389436      15.64226079
H        6.64037827       0.62412942      15.31151693
H        6.35460191       2.04015527      14.85863963
O        8.64216079       5.85456849       3.11097238
H        8.05420928       5.11438535       2.96039416
H        9.32467669       5.75787817       2.44685276
O       15.49175843      11.63217212       0.45170524
H       16.22588572      11.40048495       1.02057255
H       14.76094122      11.10644858       0.77690181
O        2.49496340      13.73812162      11.17719745
H        3.28022864      13.19252158      11.22091177
H        1.84625792      13.26742165      11.70050861
O        8.81747100       2.71372493       3.22620612
H        8.72494095       1.76367346       3.15498660
H        9.63547977       2.91008106       2.76954677
O        7.55933180      11.62928104       1.71008062
H        8.40498960      11.32012474       1.38524663
H        6.96590587      11.53150195       0.96542180
O        3.49061074      13.55498385       8.09370998
H        2.76023875      13.90717217       7.58503327
H        3.19375272      13.59985260       9.00260709
O       11.23543036       5.33639522      13.00515306
H       10.72216090       4.87040880      12.34512051
H       10.76099906       5.19222924      13.82391001
O        3.88096948       2.69770674       4.51198041
H        3.31268047       1.92827967       4.54749688
H        4.15703684       2.83419593       5.41828574
O        8.94882368      14.37603283       5.94629618
H        9.77189622      13.97611362       6.22709516
H        8.69804556      13.88494672       5.16387903
O        5.81313808      14.34472248      10.39035639
H        6.54670825      14.14397702       9.80914394
H        6.21158122      14.44050265      11.25540035
O        3.30118631      12.18556829       3.86530148
H        2.59498746      12.78857875       3.63315195
H        2.99854746      11.75877973       4.66685815
O       12.03099431      12.32778684       2.45869648
H       11.31441507      12.94781104       2.59403316
H       12.69502156      12.58511858       3.09829011
O        6.69645485       4.15147259       2.18024742
H        6.67582723       4.93638936       1.63278783
H        7.44472427       3.65126638       1.85448914
O        8.86751632       2.52057417       0.43863125
H        8.15130581       1.91723965       0.24048533
H        9.66087552       2.03033390       0.22304486
O       13.30691582       5.55024528      14.75490052
H       12.70390146       5.44609069      14.01885885
H       13.47565991       4.65714947      15.05512901
O       12.15628346       9.56701392      15.57209637
H       11.54611410      10.10300143      16.07869540
H       12.68041264      10.19952860      15.08072520
O       10.73228284       8.07012151      10.89787546
H       10.41629067       7.98907131      11.79777082
H       10.24950910       7.40088984      10.41280813
O       12.95823485       4.03794368       4.17502693
H       12.54858146       4.85525690       4.45860238
H       12.39431089       3.71865472       3.47055821
O       10.48416895      15.30510293       8.41256380
H       11.28819283      15.64689454       8.80365961
H       10.78457126      14.66808662       7.76433504
O        9.53849800      13.27321732      11.44015448
H       10.48153096      13.43681013      11.45272712
H        9.15276764      14.06352514      11.81811939
O        4.75749081       8.05353952      14.79285843
H        4.07754857       8.61284565      15.16847398
H        5.58009664       8.45170061      15.07749719
O        5.45152901       3.38988839      11.37322385
H        5.09422326       2.65410796      10.87604017
H        5.09241944       3.28142301      12.25385284
O       11.55779400      13.27401050       6.46969383
H       11.91094282      13.76391392       5.72705502
H       11.27540615      12.43991441       6.09449703
O       11.24074266      12.13533268      14.36119836
H       11.58822655      12.29289855      15.23907066
H       10.29222830      12.09277055      14.48261014
O        1.14740343       9.61504994      13.63861146
H        1.34558852      10.14091815      12.86374558
H        1.38982883       8.72265429      13.39144398
O        4.38891898       3.16061950       7.40153649
H        5.25856315       3.09001040       7.00788026
H        4.47114414       2.71779936       8.24615545
O        1.79990191      10.48707057      11.08064997
H        1.04035868      10.75846923      10.56521939
H        2.17656412      11.30606962      11.40251635
O        8.55086753       8.72520645       2.49409639
H        8.05959903       8.78158277       1.67451796
H        8.68555283       7.78719866       2.62912640
O       14.81220684       6.93112079       5.60192120
H       13.89333311       7.04798311       5.84326351
H       15.00334159       7.66762708       5.02118217
O       12.94679641       0.71027255      12.97683036
H       12.32856087       0.79013643      12.25044313
H       13.56438545       1.42988675      12.84655750
O        8.08072903       0.09524242       3.18305951
H        7.48000006      -0.58016694       2.86813294
H        8.93222227      -0.34025327       3.22223361
O        9.76792870       5.04951105       0.00030383
H        8.98166561       4.82526274       0.49803356
H       10.01169687       5.91968535       0.31590739
O       10.27889647       0.82061721       5.12640354
H        9.35560738       0.73189755       4.88997615
H       10.36712251       0.32390669       5.93986938
O       13.77771328      13.94657248       3.77281038
H       13.68384195      14.27317785       2.87796461
H       13.67359173      14.72245314       4.32362772
O       11.17723665       1.18122239      15.70115032
H       11.95042124       0.80640507      15.27933355
H       11.34138548       1.07783646      16.63848609
O        6.40353227      13.44282527       6.16769118
H        7.04465456      12.96625465       5.64036350
H        6.02618013      14.08382349       5.56523082
O       13.85159932       6.58878321      12.02896069
H       14.36579319       6.54914358      11.22257046
H       13.20391499       5.89025579      11.93517211
O        9.68287523       9.51825180      14.44149042
H       10.17413697       9.82806734      13.68063033
H        9.31584742       8.67870490      14.16457270
O        7.71322345      13.78084116       8.52753290
H        7.32137546      13.87083790       7.65886290
H        8.60172336      14.12231563       8.42656296
O        3.73272984       8.31905535       3.87854541
H        3.62196681       7.78682316       3.09070514
H        3.03397637       8.02847267       4.46466582
O        7.39044189       9.10161968       0.06301697
H        7.77731420       9.91644636      -0.25732527
H        7.68133306       8.43636830      -0.56072558
O       13.55655364      11.02251952      11.64385342
H       12.95838409      10.44932424      11.16440352
H       13.19516627      11.90072739      11.52392861
O        1.60915832       6.54787895      12.96553212
H        0.74101013       6.64526319      12.57429450
H        2.13042424       6.11630954      12.28858196
O        9.33411191       2.84865147       6.67329041
H        9.60208302       2.33664189       5.91022454
H       10.11635571       3.34358526       6.91694388
O       14.95717599      13.74366064      14.44044281
H       15.18028764      13.03464183      15.04355586
H       15.63867453      14.40109710      14.58033166
O        6.90121361       3.48106091       5.32796244
H        7.16282962       3.30665051       4.42387732
H        7.68504210       3.29474361       5.84480924
O       15.37250175      11.10819786       9.62062771
H       14.68031057      10.95235068      10.26313442
H       15.08728093      11.88840585       9.14506866
O       14.97140235       7.67657508      15.08140638
H       14.54797214       6.81968260      15.13311691
H       15.82303261       7.54904794      15.49937119
O       14.79305128       3.17597197      12.39645816
H       14.12277368       2.94080435      11.75485396
H       15.37354772       2.41548824      12.42679328
O        1.38808093       4.60326273      14.85468383
H        0.47157835       4.36578767      14.99561099
H        1.35679941       5.30621165      14.20574922
O        0.78907150      11.43590925       4.59036662
H        0.37267267      10.64900627       4.23875952
H        1.10640707      11.17377304       5.45455097
O        5.98837791       0.94639888       7.38226876
H        5.70564562       1.24190616       8.24769914
H        5.51656586       0.12527153       7.24307426
O        1.50758189       8.00427385       5.93366465
H        0.80753016       7.55646710       6.40866835
H        1.05225963       8.54046645       5.28450290
O        4.83201305       5.22673177       5.68697622
H        4.38456368       4.76607403       6.39677574
H        5.55620244       4.64939863       5.44517463
O        5.02566421      12.01054608      11.54355342
H        4.73074789      12.47108998      12.32914589
H        5.34526737      12.70303810      10.96515869
O        2.77907969       5.15456051      10.91729427
H        2.69311134       5.28128904       9.97242329
H        3.59783427       4.66964554      11.02088113
O        0.90872805       0.20332884       1.47055551
H        0.64489618       0.91842604       2.04957242
H        1.07296684      -0.53366366       2.05885774
O        5.84620172       5.58170328      13.72778275
H        5.31637837       6.28381918      14.10534375
H        6.75065177       5.86501755      13.86170427
O        8.39316384      11.88072225      14.83368517
H        7.77168967      12.60863752      14.84556163
H        8.32454365      11.52098502      13.94931408
O        1.84585375      10.70138905       1.90693574
H        1.57176799      11.08312597       2.74083367
H        2.80132317      10.67451846       1.95780803
O        9.80630284      13.22635584       0.94673543
H        9.40780280      14.09643985       0.96631546
H        9.31971959      12.75469718       0.27071273
O       14.87360027       2.61671673       2.86739995
H       15.14181268       1.86345030       3.39359729
H       14.33895922       3.14521583       3.45991955
O        8.24216326       7.09841511      14.20106607
H        8.33594425       7.03060053      13.25088812
H        8.87518264       6.47095763      14.55008671
O        0.00130513       3.13907697       7.03018711
H        0.58973234       3.62787337       6.45480607
H       -0.83506909       3.60011722       6.96575193
O       12.26844507      13.60007716      11.25415829
H       12.47338081      14.04153589      12.07838360
H       12.58534667      14.19745283      10.57670163
O        3.22092290      10.28272637      15.37962475
H        2.51677600      10.28340413      14.73123557
H        3.96758244      10.67084411      14.92344935
O       13.73416873       0.02570402       1.48684683
H       14.68734602       0.10161225       1.44299666
H       13.47582133      -0.26224345       0.61130430
