391
Lattice="42.21791456655543 0.0 0.0 0.0 42.21791456655543 0.0 0.0 0.0 42.21791456655543" Properties=species:S:1:pos:R:3 charge=0 spin=6 spin_multiplicity=6 metal=Dy geometry=droplet boundary=pbc droplet_radius=9.7526 pbc="T T T"
Dy      21.37423794      20.84241283      21.51218200
O       22.42843362      19.89204817      19.79218826
H       22.21066937      19.09488038      19.29580308
O       19.22693686      21.39365500      21.27108008
H       18.59024404      21.70584212      21.92411718
O       23.41774332      21.73513896      21.51726251
H       24.17639222      21.54319904      22.08020736
O       20.24469902      18.79055840      21.15033230
H       19.61476181      18.35884082      21.72742058
H       20.31617476      18.20780750      20.39433994
O       21.34204601      22.47008776      19.78981793
H       21.78772543      22.43630384      18.94337812
H       20.88045040      23.30861926      19.78469436
O       22.77009364      19.18936439      22.47961041
H       22.65864038      18.74807221      23.32167408
H       23.57167948      18.81336392      22.11585826
O       20.36417159      20.31782062      23.59099633
H       20.65033716      20.58330971      24.46498526
H       19.57861364      19.79296506      23.74480526
O       21.14011309      22.91964078      22.62896739
H       21.42027516      23.14238545      23.51673192
H       20.74419608      23.72390965      22.29335877
O       18.42990697      22.17177050      24.05992088
H       18.52722844      23.09684535      23.83409597
H       19.25573886      21.77051094      23.78932099
O       18.93076738      27.43350511      18.00080054
H       19.11237613      26.77942193      18.67565258
H       19.65540859      28.05528148      18.06803976
O       25.09782910      21.61010570      19.38182850
H       24.50830780      21.56481454      18.62907012
H       24.51671705      21.60452215      20.14242658
O       21.67858548      21.38845863      25.79618479
H       21.13257062      21.82362670      26.45095832
H       22.45358656      21.94526827      25.72156445
O       24.94035849      18.23388020      21.13268905
H       25.13279205      19.15255030      20.94494879
H       25.72098394      17.76126182      20.84374683
O       23.21403441      20.86506188      17.37672299
H       22.57945048      20.55270092      16.73176896
H       22.85073659      20.59628346      18.22052669
O       21.17368432      17.49256065      18.15989319
H       21.77879963      17.14557372      18.81538337
H       20.40760686      16.92124109      18.21421745
O       23.17813561      16.65165002      19.79496029
H       22.59208818      16.44079451      20.52181668
H       23.84831180      17.21455387      20.18256183
O       23.94358638      23.56364568      17.88028330
H       23.21919006      24.07874721      17.52510415
H       24.49446000      23.36948963      17.12194727
O       19.02510664      18.27376818      25.85552555
H       18.95383331      17.55074399      25.23231773
H       19.95589496      18.30977089      26.07590875
O       16.16835058      19.86686448      23.04352722
H       16.80812133      19.94567880      23.75113837
H       16.19295495      18.94156560      22.79970670
O       24.23457522      16.37116441      23.08688063
H       24.24088712      16.99798381      22.36349316
H       23.50049965      15.78827678      22.89295560
O       24.22954648      19.45446444      26.06288437
H       25.06039950      19.87066385      26.29243426
H       23.59206526      20.16839782      26.07507690
O       21.62510249      18.61972985      26.59345613
H       22.54249665      18.38463839      26.73256682
H       21.64445273      19.55647767      26.39759666
O       17.11606018      24.00283995      19.03846736
H       17.02795211      23.05111460      18.98662450
H       16.24629480      24.33669710      18.81874156
O       18.06219316      16.25443824      21.86357907
H       18.43379144      16.63576063      22.65902850
H       18.69851894      16.46037359      21.17880759
O       26.97240116      21.81840438      21.55950049
H       27.30984342      22.71357977      21.52747565
H       26.43767082      21.73511375      20.76997027
O       21.90731105      16.20858835      24.94132014
H       21.83231902      16.96707058      25.52038209
H       21.75409301      16.56013846      24.06429756
O       22.20663226      26.47346104      21.09475392
H       21.40960854      25.96699261      20.93830980
H       22.86884803      25.81757280      21.31272805
O       19.65087477      21.21457804      17.61692286
H       20.23145612      20.53826158      17.26799136
H       20.10581684      21.54514679      18.39150912
O       22.48659129      25.77621479      24.56349093
H       23.02671039      25.03647463      24.84149758
H       22.45609627      26.35170976      25.32776014
O       21.05764227      19.14501382      15.81518235
H       21.78529597      19.09367843      15.19541093
H       21.27151004      18.50100039      16.49026689
O       25.77782772      19.28989452      17.81604547
H       26.51146719      19.89632290      17.71480522
H       25.00074384      19.84857911      17.80042466
O       21.84077410      14.92942759      22.54179487
H       22.46184222      14.25236907      22.27328418
H       20.98655142      14.59209080      22.27209254
O       18.69819098      25.54494184      24.33341950
H       19.45744333      25.13506084      24.74786526
H       17.95802920      25.29239516      24.88533667
O       21.80300945      24.78794361      16.73242052
H       21.10422413      24.25135865      17.10659627
H       21.84562088      24.52037384      15.81436686
O       26.77928283      22.57608952      24.26041049
H       26.81867875      21.74462708      24.73300970
H       26.75532351      22.32620827      23.33671294
O       16.39333615      17.10504505      19.89128801
H       17.22014844      17.37632130      20.29006423
H       16.16861020      16.28821550      20.33684336
O       16.88912107      20.58882384      18.77246747
H       17.78373077      20.78292651      18.49277213
H       16.41118860      20.43405267      17.95769249
O       27.40829897      18.51781510      22.24288288
H       27.25215749      19.43511063      22.01833758
H       27.58265821      18.52744857      23.18401937
O       27.22937697      23.29273276      19.22797835
H       27.07928400      23.87514036      19.97262949
H       26.41620261      22.79461324      19.14517592
O       19.80616875      23.02812553      15.21524794
H       19.81484484      22.30877436      15.84666734
H       20.72059182      23.12520062      14.94946850
O       25.40089417      21.61827610      15.94539118
H       26.10956045      21.46068155      16.56924045
H       24.60775047      21.35344598      16.41124515
O       18.08323608      18.73168166      15.74888447
H       17.74386908      19.20333309      16.50954655
H       19.03207344      18.84793382      15.79812819
O       19.62537445      24.92915261      20.50816384
H       19.45976833      25.83473927      20.77030740
H       18.79970959      24.63609510      20.12264252
O       15.57155599      17.16440510      22.76881975
H       15.02117359      16.93682839      22.01947344
H       16.44071919      16.83781080      22.53617550
O       21.73161008      22.17568417      28.39923384
H       22.52149304      21.97813983      27.89595162
H       21.37852463      21.31860358      28.63792894
O       19.25168837      27.48187971      22.41262147
H       18.99597495      26.72662427      22.94217950
H       19.96643526      27.88790386      22.90304282
O       18.10100933      19.96238606      27.77726273
H       18.93288644      20.03680934      28.24488811
H       18.31702260      19.48157025      26.97827196
O       15.11352531      22.92898896      24.22421980
H       15.67352439      23.61407315      23.85912730
H       14.82161076      22.42683640      23.46339095
O       17.70619547      16.41402165      17.21219104
H       17.27649232      16.61116818      18.04448923
H       17.95956488      17.26907776      16.86446294
O       22.37821094      14.61834335      18.05675569
H       21.43866822      14.53196231      18.21809270
H       22.61495133      15.45403024      18.45901587
O       24.13398930      23.25239516      25.66268868
H       24.95811743      23.15073895      25.18654724
H       24.38019079      23.68929848      26.47799976
O       27.38826588      16.87198854      20.07741404
H       27.61902974      17.39799241      20.84311621
H       27.43980571      15.96662144      20.38382210
O       27.30586418      25.18718205      21.45146609
H       26.84955009      25.95226896      21.80168218
H       27.85948601      24.88713350      22.17237218
O       23.20053868      20.04300668      14.40096744
H       23.92140547      20.29028594      13.82179918
H       22.58826363      20.77692598      14.34887555
O       19.48082011      13.69831922      21.98198244
H       19.01771817      14.53227428      21.90268936
H       18.91888328      13.06796659      21.53130027
O       25.23254224      26.72302967      24.02364119
H       24.33958048      26.42066546      24.18925225
H       25.49316647      26.27293763      23.22007165
O       24.51617502      14.28522550      19.70494948
H       24.07946310      15.13631756      19.73896181
H       25.44701880      14.48935767      19.79490370
O       24.77927635      26.49882412      17.95334898
H       24.65670377      25.54988985      17.98039598
H       24.08447941      26.81417431      17.37538418
O       20.74328723      19.70759139      28.97380840
H       21.12128153      19.29580639      29.75084460
H       21.09288037      19.20189665      28.24012639
O       16.48700378      24.77146833      25.92621919
H       16.81312839      23.87702752      26.02546745
H       16.81303676      25.23290600      26.69888316
O       27.08598195      20.43020154      26.70699020
H       26.99758087      19.52064498      26.99181287
H       26.86280173      20.94689937      27.48122904
O       17.46042396      14.54520414      24.29428049
H       17.66682161      15.04421293      23.50395013
H       18.24996970      14.03248912      24.46740663
O       24.06314004      14.49584228      25.13822355
H       24.25559261      14.06542357      24.30519679
H       23.27820460      15.01530184      24.96424089
O       17.65385598      23.31749291      27.90682804
H       17.86527040      24.24681365      27.99570298
H       16.79019700      23.22824812      28.30976771
O       16.77823349      27.19311182      21.31853095
H       16.45846497      28.07412422      21.12411621
H       17.66968474      27.32696621      21.64044632
O       21.78905145      24.88927689      28.22170907
H       21.71897063      23.93528081      28.25652263
H       21.59391223      25.17695077      29.11355898
O       19.74427675      14.21690818      17.50936125
H       19.44761859      14.31016753      16.60408314
H       19.94232563      13.28503537      17.60221348
O       21.24787486      28.35040531      24.09386289
H       21.73622353      28.89681070      23.47807999
H       21.59534957      27.46860077      23.96001995
O       28.18138207      20.49127095      17.29508656
H       27.93264083      21.23825151      17.83949420
H       29.04737000      20.23874870      17.61528846
O       24.73535191      13.60361959      22.33501957
H       24.25026296      12.79296635      22.48916844
H       24.64180184      13.76442601      21.39607254
O       13.42689880      21.57121327      22.57792087
H       13.88566027      20.75491065      22.77646502
H       12.76796350      21.65007658      23.26771554
O       14.41417084      20.63365840      25.67628275
H       14.92702592      20.65392015      26.48424374
H       14.67799760      21.42373874      25.20468936
O       26.61839680      15.93892895      25.37154797
H       25.76428891      15.50914776      25.32660699
H       27.20812989      15.26590640      25.71138230
O       21.98597321      24.19819397      14.08287112
H       21.87048360      23.89821868      13.18125656
H       22.91794277      24.07126676      14.26050576
O       15.88723037      14.72914075      21.27888756
H       16.00200938      14.18884764      22.06064262
H       16.41095118      14.29304552      20.60674971
O       13.67644846      18.92882551      23.60177324
H       14.00223331      19.52698397      24.27430765
H       14.42887330      18.37805263      23.38558367
O       20.07887077      17.08286622      28.71348443
H       19.12454663      17.13286923      28.76822903
H       20.25790808      16.91966249      27.78744878
O       24.80869659      23.95371016      14.68307212
H       25.54834318      24.51904963      14.90566155
H       24.98277059      23.13606121      15.14931270
O       27.29641591      25.98507380      18.84691994
H       26.40375881      26.29843966      18.70132811
H       27.35390479      25.85560206      19.79357930
O       29.50751113      22.74607027      21.22622867
H       28.93717806      22.89273755      20.47161570
H       29.93399612      21.90840721      21.04549960
O       24.03636687      16.22488758      15.07309376
H       23.23949264      16.72214339      14.88881148
H       23.72772018      15.33929888      15.26467066
O       17.53526370      24.54197062      15.05709033
H       18.31929232      23.99405300      15.09338420
H       17.86808249      25.43910412      15.08188878
O       25.58667748      21.44982466      28.73451455
H       25.10011430      20.71691495      28.35724611
H       24.91949484      21.98490616      29.16438308
O       26.45926886      16.57565913      16.36389605
H       25.58169743      16.33480812      16.06709472
H       26.34009592      17.41428168      16.80970078
O       17.45059149      17.17835821      28.01960228
H       17.92710494      17.51883413      27.26247421
H       17.02228055      17.94591193      28.39860475
O       16.43358988      27.04802245      24.43865463
H       16.24031307      26.27559269      24.96990615
H       16.57358413      26.70371384      23.55656335
O       15.29675605      16.85891614      25.83941526
H       15.47769668      17.02450959      24.91417413
H       16.12261275      17.05103444      26.28358090
O       29.19040952      20.82377438      24.77444341
H       28.46321768      20.60134447      25.35577705
H       28.77771739      21.26445238      24.03166488
O       14.11317804      17.61494823      18.49868739
H       14.02968747      18.56735978      18.54530710
H       14.89980103      17.41781980      19.00721122
O       23.03070060      27.09549304      15.95713530
H       23.32078272      26.84489687      15.08004593
H       22.55314496      26.33112384      16.27948945
O       24.22059115      17.86547235      29.09250725
H       25.05020798      17.72232739      28.63701050
H       24.12075979      18.81716422      29.11591925
O       29.10777841      24.24095205      23.46317798
H       28.35433981      23.75197972      23.79403773
H       29.56392211      23.62206193      22.89296769
O       24.76894080      24.83348143      28.45626026
H       23.81192013      24.84821026      28.44501968
H       24.99384669      23.90590120      28.52867648
O       17.13067580      13.61335308      19.13243389
H       18.01373049      13.59539314      18.76348444
H       16.58105558      13.94701294      18.42333548
O       21.71516332      27.83371379      26.72721497
H       21.52649775      28.07902815      25.82142360
H       20.92438745      27.38300278      27.02346647
O       18.68875982      27.84805213      26.03980918
H       19.43038429      28.03231846      25.46337974
H       17.98114115      27.59491587      25.44699411
O       14.32973514      21.12945715      16.25597298
H       15.19307492      21.53571391      16.33233853
H       14.51313706      20.21362198      16.04658932
O       13.08996889      23.07144757      19.51765819
H       13.19296897      22.63495559      20.36329261
H       13.87565370      22.83142109      19.02641638
O       21.48449073      12.30722311      23.79247213
H       22.34576683      12.54808394      23.45126635
H       20.86452598      12.69878958      23.17720695
O       26.84742219      17.47797544      27.60363020
H       26.76470863      16.85602695      28.32652050
H       26.78568381      16.93895488      26.81503838
O       20.28123655      29.64091100      21.11762556
H       20.21754729      28.68714355      21.06759393
H       21.22149555      29.81968655      21.10405521
O       15.40501720      20.01841357      28.13353806
H       16.35253995      19.95819503      28.01185730
H       15.27332958      19.86915686      29.06981401
O       17.07261744      21.78523111      13.69381896
H       17.44058620      21.16640854      14.32460376
H       17.18379256      22.64219551      14.10550324
O       27.36439804      14.24206463      22.61592000
H       26.42059498      14.16430544      22.47656027
H       27.55065071      15.17168366      22.48419969
O       26.07419208      28.50005390      21.18770385
H       26.86690150      28.95634364      21.46991531
H       25.79131384      28.01039369      21.96000212
O       18.76693074      15.07654736      15.08474573
H       19.54808503      15.61954012      14.97896919
H       18.23186462      15.54767033      15.72347826
O       22.71828562      15.19453983      28.41716527
H       23.31038606      14.46799316      28.61153310
H       23.20765403      15.97725857      28.67034852
O       20.42112273      13.08757038      26.17127620
H       20.92972120      13.84102308      26.47105691
H       20.81076246      12.85500321      25.32846825
O       27.88936402      26.42808478      24.52634158
H       27.20970348      26.85742916      24.00676792
H       28.15944408      25.67854512      23.99579573
O       14.26828084      26.45856170      20.57088541
H       15.18564540      26.65384446      20.76203652
H       13.88378695      26.25408047      21.42328420
O       29.20022413      16.24196245      22.44694583
H       29.90547733      16.42514660      23.06766584
H       28.64003359      17.01720665      22.48456017
O       26.82427763      25.77107074      26.94136198
H       26.73132136      26.59394563      27.42143267
H       27.23007789      26.02188871      26.11151360
O       12.32041534      19.58197213      21.08895678
H       12.28391845      18.72399641      20.66613592
H       12.75637292      19.41896949      21.92537950
O       25.67607898      20.62386410      13.42868351
H       25.68091065      21.03523873      14.29296322
H       25.31362752      21.29199465      12.84690835
O       24.44032902      27.35130496      27.20312498
H       23.50778552      27.56501857      27.17277780
H       24.47148598      26.46272404      27.55764583
O       28.94826554      23.10188609      26.24254465
H       28.18872514      23.26382667      25.68298636
H       29.31912082      22.28337326      25.91279481
O       17.74049938      26.25562147      28.03063015
H       18.08086641      26.81577734      27.33305755
H       17.12205141      26.81158053      28.50461693
O       14.88027357      18.08171252      15.57755673
H       14.70339906      18.00251739      16.51493359
H       15.74206131      18.49559542      15.53007320
O       23.57469590      23.15040090      30.22810084
H       23.02253283      23.47629218      30.93883473
H       22.95694502      22.80923599      29.58139984
O       13.88027273      24.13237214      26.36770453
H       13.96919960      23.57876151      25.59192162
H       14.71892842      24.58896631      26.43411408
O       19.18206834      23.58849505      30.37043166
H       18.67115356      23.45132718      29.57269554
H       19.09277000      22.76876156      30.85653313
O       18.28116650      19.98780556      30.49745936
H       17.89625687      19.11469777      30.57334881
H       19.16213105      19.83291204      30.15666428
O       22.86837371      13.31314285      15.72124768
H       22.74810488      13.85404950      16.50175216
H       22.43218764      13.80022525      15.02215950
O       22.10794411      19.16967629      12.06816864
H       22.13846585      18.21795380      11.97057478
H       22.45901990      19.33252859      12.94364380
O       23.12785245      30.32000640      20.96961445
H       23.91194502      29.78280946      21.08297282
H       23.43042199      31.21791457      21.10542475
O       22.92879428      11.86610279      18.19424143
H       23.83592660      11.83092123      17.89075328
H       22.72800889      12.80075393      18.24265966
O       17.30134846      14.33636125      27.46231337
H       17.44471632      15.24449365      27.72872103
H       17.34285603      14.35732485      26.50624356
O       21.52621741      21.81690158      11.83966313
H       20.75047840      21.83129584      11.27907984
H       21.76285091      20.89126260      11.89822005
O       17.66645283      11.85510946      21.13756211
H       17.84761649      11.00000000      20.74743472
H       17.46677579      12.42150111      20.39220219
O       13.40531665      26.19022330      23.14696707
H       14.27076697      26.37464818      23.51195342
H       12.84720732      26.04992068      23.91185987
O       28.79484393      23.25397111      15.66131694
H       28.61706153      22.43985938      16.13232369
H       28.89447741      22.98588739      14.74784219
