391
Lattice="41.652645551855166 0.0 0.0 0.0 41.652645551855166 0.0 0.0 0.0 41.652645551855166" Properties=species:S:1:pos:R:3 charge=0 spin=4 spin_multiplicity=4 metal=Er geometry=droplet boundary=pbc droplet_radius=9.7941 pbc="T T T"
Er      20.47991538      20.11257936      21.11341614
O       22.27666663      18.85091941      20.97235188
H       22.36716054      17.92919742      20.70489082
O       19.92698927      21.34943394      19.38007731
H       19.97541591      22.30467230      19.25978383
O       21.43094549      20.24502944      23.09280966
H       21.22960044      20.82018644      23.83977056
O       20.02497084      18.59005559      19.39570055
H       19.86730819      18.78007960      18.47089505
H       19.95481815      17.63762160      19.46035295
O       22.25783757      21.60871923      20.83744846
H       22.71176768      21.83594512      20.02593894
H       22.69420925      22.13069150      21.51076603
O       19.91259038      18.11894055      22.19930134
H       19.62285076      18.00686191      23.10468588
H       19.91823970      17.23269642      21.83767824
O       18.14538751      19.99808453      21.00174449
H       17.57325376      20.35324231      20.32148147
H       17.54849688      19.58559300      21.62608747
O       19.72426271      22.13260206      22.02121421
H       19.93703873      22.50664092      22.87623067
H       19.13309054      22.77009780      21.62078135
O       19.08597796      19.09966446      24.75079561
H       18.33370003      19.25673035      24.18014681
H       19.81390494      19.54384617      24.31598903
O       18.27225931      24.18833652      20.98970788
H       17.91366878      25.07324043      21.05745555
H       18.15164359      23.95024138      20.07047212
O       16.24818132      18.85558758      19.42271180
H       15.50933327      18.97959215      20.01849553
H       16.55733568      17.96826206      19.60521891
O       19.58136622      16.22065493      18.13571825
H       20.35326235      15.66222123      18.04319797
H       18.95735549      15.87523776      17.49733792
O       24.39281137      17.14858290      21.12195745
H       24.01449309      16.40794911      20.64807064
H       25.30010576      16.89087293      21.28515764
O       20.91450623      21.85626777      25.47132106
H       20.27861365      22.49578096      25.79209411
H       20.87231684      21.13829184      26.10295581
O       16.24626725      18.74742039      22.90769598
H       16.44927183      18.09041085      22.24184356
H       15.77488213      19.43221901      22.43327131
O       19.70934856      24.26487561      23.70987849
H       19.04487929      24.32782827      23.02376670
H       19.22750951      23.97582269      24.48480519
O       18.95651682      15.34982469      20.63564198
H       19.38252469      15.52208414      19.79595405
H       19.63222378      14.92644794      21.16517392
O       19.29252708      23.12269597      17.24312475
H       19.02457036      23.60243338      18.02688686
H       19.44607646      23.80215911      16.58663083
O       20.55473168      24.88410835      19.30724061
H       19.99064930      24.64645261      20.04315003
H       20.77635599      24.04900385      18.89527583
O       24.44959178      21.62785361      24.31301690
H       24.14787736      20.81389938      23.90968235
H       24.13947732      22.31645670      23.72489561
O       16.71573264      21.66818619      24.62578900
H       15.79767133      21.41648483      24.72599730
H       17.20023281      20.84689178      24.70925704
O       24.02035564      20.41053936      16.97062819
H       23.31786619      20.99126159      16.67822077
H       23.67671723      19.99838966      17.76326752
O       22.34476896      15.10700519      19.78581562
H       21.83537848      14.33172428      19.54982266
H       23.05735793      15.12952496      19.14711251
O       16.69353846      16.17379340      19.33307474
H       17.62033571      16.29084893      19.54182508
H       16.49775770      15.27706327      19.60469362
O       24.49965264      23.88417450      22.43071306
H       25.17679070      23.21170247      22.35656958
H       24.81712075      24.46964266      23.11822515
O       21.61562324      22.32468366      16.01240516
H       20.68376479      22.34476036      16.23027805
H       21.68667872      22.84753833      15.21377761
O       15.97177062      23.47692827      22.25463220
H       16.31272667      22.98416240      23.00106546
H       16.72861680      23.59836386      21.68133550
O       14.75292180      21.21419904      21.36420821
H       15.21143636      21.99385622      21.67746675
H       15.41183295      20.73326078      20.86344247
O       17.55115151      16.28279503      24.47836578
H       17.18335346      17.06347940      24.06425425
H       17.62909730      16.51597636      25.40345105
O       26.07708093      21.66161111      22.12055618
H       25.77675809      21.45000025      23.00444468
H       26.39819030      20.83047768      21.77078793
O       18.80133883      19.77607853      15.46053604
H       18.02939733      19.59379059      15.99636182
H       18.48159009      19.74037423      14.55902743
O       22.06340613      24.31427425      25.07163204
H       21.31126403      24.49206590      24.50691598
H       22.07185456      23.36190685      25.16732327
O       18.67093595      27.71811071      22.73260377
H       19.35637240      27.60048015      22.07490190
H       19.09551557      27.50242994      23.56293250
O       23.11497333      27.34343629      22.77922378
H       23.44192319      26.44545890      22.72470549
H       22.54135737      27.43657786      22.01861796
O       15.57021446      22.86427245      18.48773367
H       16.04228426      22.04451379      18.34152258
H       14.67680041      22.59251646      18.69795225
O       23.20333455      25.17678982      18.76167633
H       22.28190256      25.26950886      19.00374677
H       23.18346520      24.85208748      17.86145111
O       26.72293730      19.46744172      20.61317540
H       25.86785054      19.45708242      20.18311591
H       26.60064172      18.94095350      21.40316641
O       20.04385858      17.35646290      15.46531534
H       20.02465992      17.08347525      16.38256176
H       19.40996779      18.07188943      15.41452964
O       23.33284295      21.05025817      26.72532454
H       23.55625681      21.33705389      25.83984936
H       24.16357050      20.75637851      27.09916718
O       18.17510734      23.50026253      26.01398847
H       17.73057654      22.78994909      25.55130173
H       17.46635324      24.02227260      26.39002695
O       26.27515243      18.38119417      23.22924976
H       27.04049809      17.80637104      23.23674794
H       26.51865886      19.11244274      23.79688695
O       20.86936649      19.97951059      27.58705240
H       21.78780613      20.24714516      27.55430789
H       20.78360682      19.33009936      26.88909669
O       16.17407878      19.96785952      16.13812460
H       15.89321548      20.73983773      16.62944658
H       15.82901912      20.10613951      15.25605640
O       17.86134245      17.78622163      26.79372505
H       16.97670238      18.10281181      26.61092888
H       18.40921424      18.21011145      26.13313004
O       21.15612505      15.30177088      24.94546636
H       22.08937190      15.37354733      25.14579183
H       20.85379071      16.20779150      24.88259804
O       25.29413215      17.01847699      17.45669403
H       25.92528870      16.95776779      18.17376282
H       24.99370666      17.92706672      17.47769552
O       15.52506577      18.26449901      25.48549647
H       15.57345364      18.55947185      24.57616623
H       14.59246016      18.29613195      25.69875212
O       14.44805758      17.41268332      17.98197518
H       13.96236830      17.49004926      18.80316472
H       15.33343737      17.16580215      18.24915334
O       17.42470599      22.88141201      15.23403343
H       18.00008278      22.63928249      15.95966880
H       16.76732023      22.18619196      15.20674073
O       13.09996725      18.25510386      23.20021337
H       14.03208860      18.44494806      23.09372012
H       12.65860392      18.90613618      22.65469787
O       25.37883174      25.43220004      20.37424497
H       24.61121061      25.41333622      19.80272611
H       25.18827820      24.78523226      21.05347533
O       19.56609604      26.10928298      17.05443129
H       19.91289792      25.66097013      17.82577809
H       20.32245814      26.55933090      16.67812678
O       21.08605976      20.72750710      13.87535355
H       20.43801867      20.37850904      14.48729713
H       21.00082661      20.17794514      13.09628436
O       26.73381635      23.14750903      18.85616250
H       26.19643569      23.79781815      19.30843665
H       27.50873386      23.04978440      19.40950198
O       14.13816876      20.81758367      24.80197029
H       13.90755649      20.01771109      24.32947301
H       13.86619965      20.65015467      25.70431843
O       23.90038294      17.88361821      28.06681297
H       24.72497756      18.36112647      28.15770529
H       23.67518874      17.96778746      27.14029532
O       26.92913408      20.49611746      24.80969509
H       27.45361732      21.24560364      24.52788019
H       26.03571238      20.83532102      24.86419692
O       23.81066314      16.95394549      15.15425888
H       23.03721312      16.39472683      15.08158567
H       24.07604747      16.87856064      16.07083955
O       14.78993219      15.26848376      21.38292488
H       15.23021855      15.98453137      20.92504326
H       15.28915092      14.48764253      21.14355181
O       24.02114979      14.38253773      17.74926596
H       23.55220819      14.32802104      16.91658742
H       24.44115950      15.24250044      17.73230072
O       16.92329908      25.39422850      17.11302053
H       17.82756291      25.69493683      17.02294692
H       16.85088486      24.66397746      16.49843006
O       20.87750403      27.51416997      19.92137842
H       20.78304567      26.63781085      19.54814369
H       20.56879568      28.10289093      19.23265596
O       21.56724736      22.54591012      28.15710539
H       21.38422579      23.21717068      27.49972863
H       22.34043019      22.08951735      27.82525331
O       16.70322827      13.88012272      23.11728603
H       16.90875267      14.72784036      23.51145142
H       16.97686104      13.96736541      22.20418929
O       26.95933209      16.24585736      21.56759518
H       27.54736711      16.60345901      20.90233755
H       27.52357250      16.08102505      22.32303870
O       21.15252773      13.01919615      18.51380369
H       20.94691121      13.25701214      17.60970345
H       20.58780831      12.26883087      18.69894083
O       15.61473392      24.86530186      24.56619506
H       15.54787791      25.33268361      23.73353882
H       16.30965684      25.32044312      25.04175831
O       19.68334205      24.34636431      14.84555254
H       19.46845428      25.27838038      14.88298421
H       18.84206416      23.91151827      14.70629643
O       25.02142520      23.26944530      26.40504576
H       24.26030015      23.83723293      26.52561815
H       24.83251089      22.78188163      25.60328215
O       18.33080848      15.15855718      15.60839416
H       18.18771687      15.84353178      14.95527363
H       17.45505441      14.95096429      15.93426504
O       26.38973996      21.58508077      16.33432611
H       25.48416554      21.28186358      16.39933484
H       26.64210764      21.78235419      17.23633808
O       20.07438616      26.78901982      25.52263417
H       20.08530079      26.01062913      24.96565962
H       20.54100978      26.52361055      26.31513158
O       24.74991736      15.52097178      25.86052062
H       24.02782951      14.89684499      25.93323047
H       24.33485531      16.33653497      25.57978585
O       16.42297495      13.42189335      20.23328337
H       16.70896462      12.65569658      20.73066075
H       16.23186526      13.08272009      19.35882901
O       25.61350254      14.55062737      23.43584110
H       25.39209743      15.02073432      24.23971365
H       25.74793233      15.23905317      22.78451139
O       14.94351417      15.50931164      24.45923255
H       15.07196288      15.47720431      23.51123367
H       15.28003101      16.36720515      24.71808965
O       15.38845304      26.21955643      22.01930997
H       16.24991356      26.63085073      22.08969901
H       15.29379965      26.01863455      21.08823372
O       15.05157045      25.66706452      19.08184943
H       15.76027768      25.99639477      18.52912211
H       15.11150077      24.71469134      19.00684592
O       12.99674679      17.01956973      20.32623153
H       13.28902149      16.17786621      20.67600650
H       12.84954207      17.56304474      21.10031003
O       21.43273478      12.07122357      22.27007562
H       22.19747584      11.99902019      21.69894549
H       21.20503186      13.00072643      22.24988537
O       12.96734438      22.07481935      18.50310595
H       12.47181493      21.27785088      18.31462873
H       12.30625607      22.70785831      18.78320552
O       20.67970969      13.69740931      15.91587068
H       19.93671237      14.28011025      15.75887886
H       21.41944938      14.13209265      15.49152717
O       17.90810311      17.16065600      13.79241124
H       17.93549345      18.08135326      13.53203044
H       16.97808299      16.97584699      13.92333118
O       17.19026798      19.57994049      28.72520980
H       17.69439414      18.94716794      28.21365573
H       17.84318711      20.19884705      29.05213963
O       23.79146915      22.08191316      13.71771389
H       23.52604977      22.99436560      13.60275766
H       22.96782523      21.59649335      13.76472595
O       23.14449886      18.26712268      24.94818712
H       22.52260848      17.56931242      25.15445155
H       22.64568298      18.88179755      24.41005203
O       21.66124466      15.61724957      14.13956905
H       21.04190478      16.18282465      14.60084422
H       21.98275182      16.15398265      13.41515025
O       22.43967633      27.57783491      17.69562731
H       22.90206708      26.79032609      17.98243123
H       23.01335993      28.29982830      17.95222916
O       23.29756645      25.26079806      27.30307574
H       23.91656105      25.80284151      26.81392707
H       22.67443848      24.95415296      26.64435565
O       14.09175551      23.04016518      16.21129434
H       14.93076791      23.11532460      16.66587225
H       13.48949581      22.70121678      16.87358512
O       20.61680209      18.02640805      29.46321918
H       20.84994462      18.44052434      30.29411274
H       20.76553957      18.70636343      28.80612733
O       19.11547886      23.72894068      28.81254622
H       18.74795652      23.61466993      27.93613229
H       19.94318291      23.24869345      28.79017578
O       17.79059432      19.77437387      12.93530460
H       17.90608231      20.71881323      12.83076437
H       17.62298717      19.45355426      12.04918132
O       14.75953024      23.41745331      26.73148563
H       15.05924481      23.82401822      25.91840016
H       13.82594543      23.62455615      26.77343390
O       22.10171363      24.21053236      13.60766462
H       21.24702268      24.33602993      14.01995770
H       22.71910364      24.64038398      14.19951680
O       18.43937561      22.40892691      12.74393955
H       17.90860666      23.00066960      12.21068843
H       18.06925579      22.48153797      13.62369565
O       15.43080601      16.50852089      14.70680660
H       14.93315439      17.18349159      15.16831420
H       15.22167025      15.69733844      15.16992333
O       26.17865439      26.19023117      17.88402436
H       26.51398640      25.49408468      17.31907803
H       26.31311380      25.86314290      18.77349936
O       29.15865311      19.16827612      19.10570754
H       29.46131302      20.07241942      19.02112784
H       28.33097801      19.23580159      19.58176013
O       29.33787137      19.07746365      22.34851322
H       29.99540652      18.70216356      21.76282627
H       28.56255242      19.18955848      21.79847038
O       24.44980885      25.72983687      15.29055276
H       25.02525419      25.96483250      14.56262998
H       24.98058263      25.87733485      16.07333969
O       24.58955197      12.06599312      20.13455708
H       24.42225206      12.72868179      19.46441806
H       24.29244227      12.46921600      20.95025860
O       18.27384467      14.22504339      27.70522801
H       18.16490389      15.14635220      27.46952945
H       17.83037050      14.13916630      28.54914011
O       28.27760242      24.78252359      20.38648039
H       28.68465616      25.64747759      20.33755518
H       27.33730330      24.96055043      20.40586731
O       11.47057820      21.56497206      22.13332926
H       12.40302115      21.49340150      21.92922233
H       11.16712267      22.30811583      21.61190436
O       20.23656115      19.00688200      11.94760839
H       20.06838053      18.24716037      11.39014076
H       19.47280870      19.05651151      12.52245702
O       27.02231495      16.74928935      26.71248833
H       26.22311428      16.33033441      26.39313445
H       27.59979289      16.02117422      26.94183398
O       22.76295359      11.83429927      24.63075225
H       22.29916876      11.92601383      23.79845188
H       22.40139946      12.52632254      25.18447984
O       20.54381526      21.35430725      30.37770662
H       19.72191060      21.83063960      30.49523137
H       20.94719091      21.75770885      29.60907987
O       17.80766852      29.01952864      18.91819522
H       18.70625356      29.08971422      18.59593639
H       17.89548201      28.99759183      19.87110624
O       15.06716151      20.55616927      13.49542454
H       15.98084198      20.34480853      13.30373082
H       14.81884031      21.18451394      12.81737485
O       26.91555845      26.59917664      23.14599697
H       27.34108344      27.41245576      22.87445067
H       26.47690306      26.28257170      22.35632957
O       27.06688924      19.29962721      14.46493848
H       26.87461998      20.01765417      15.06801530
H       26.81173129      19.63366905      13.60497203
O       18.25855891      12.46966811      16.08640077
H       19.21398416      12.52048209      16.11490300
H       18.04612748      12.46668550      15.15307563
O       28.16220478      15.40232849      23.85670594
H       28.76566767      14.87128040      24.37637151
H       27.34220786      14.90856177      23.86230203
O       27.73214399      23.94762055      16.45582515
H       27.29386558      23.19060189      16.06715225
H       27.66752081      23.80374841      17.39994192
O       13.01107263      17.96892550      26.48092342
H       12.27832400      17.64077248      27.00210176
H       12.61897620      18.21284431      25.64247494
O       26.26833933      15.80711534      14.94687313
H       25.92144100      16.21751455      15.73900057
H       25.63294809      16.02594602      14.26524057
O       15.97565253      12.48000869      17.72108118
H       16.77618807      12.46610394      17.19650389
H       15.72749824      11.55932405      17.80469386
O       14.72326654      14.31666677      16.15372141
H       15.06813296      13.77506549      16.86362778
H       13.82836321      14.52382401      16.42291603
O       22.91080512      17.17271468      12.28650208
H       23.03547011      18.11151677      12.14742973
H       23.79823681      16.81658778      12.32975107
O       25.20465545      26.81400638      26.14163032
H       25.67038348      26.83708355      25.30568972
H       25.52883624      27.57825670      26.61813855
O       11.74625584      17.14124492      17.82425547
H       12.06157659      17.02873843      18.72099788
H       12.53927227      17.13339691      17.28825623
O       23.39542519      19.81866936      11.88313104
H       23.99035219      19.62991354      11.15741419
H       23.78393333      20.57588891      12.32120843
O       27.65365478      22.94176162      27.00703531
H       28.10338903      22.84138896      26.16805005
H       26.73620583      23.08121247      26.77235954
O       20.32687908      29.28087884      17.92639071
H       21.20623824      29.01505398      17.65751070
H       20.16465096      30.09332151      17.44696314
O       29.75600905      22.91961813      21.70647631
H       30.65264555      23.05532426      21.40011270
H       29.23553179      23.55444684      21.21420832
O       13.19176561      13.94283210      19.34437205
H       13.84177876      13.55601368      18.75778339
H       13.70850270      14.41559470      19.99683672
O       12.47021896      23.68403871      25.28703741
H       12.92125190      22.84531394      25.19038392
H       11.69032258      23.60177595      24.73819652
O       11.96285551      15.60323108      22.40553343
H       12.29566779      16.45011843      22.70260186
H       11.48766791      15.80175131      21.59867638
O       11.32783818      19.86251830      17.78359648
H       11.48526067      18.91835218      17.78300673
H       11.00000000      20.05170656      16.90441404
