391
Lattice="40.99360985075541 0.0 0.0 0.0 40.99360985075541 0.0 0.0 0.0 40.99360985075541" Properties=species:S:1:pos:R:3 charge=0 spin=8 spin_multiplicity=8 metal=Gd geometry=droplet boundary=pbc droplet_radius=9.729 pbc="T T T"
Gd      19.77559302      19.66820300      20.29825574
O       21.83248827      20.32450397      20.99922003
H       22.09144462      20.81214318      21.78943873
O       18.77931132      17.85898299      21.24008679
H       18.60393941      17.66062687      22.16701481
O       18.71497945      20.82112205      18.65546040
H       17.79677358      20.78188236      18.36450641
O       21.29404373      17.80616119      20.48589293
H       21.30136083      17.00158510      19.96739931
H       22.02501157      17.70539511      21.09561750
O       19.93074288      19.71099033      22.70287583
H       20.51297901      20.24531685      23.24299442
H       19.42394206      19.19746742      23.33190602
O       18.83439927      18.19798170      18.63671921
H       18.31176020      17.40914171      18.78098187
H       18.89942112      18.27198634      17.68460193
O       17.47109842      20.10281085      20.85370210
H       16.95376755      20.87971351      20.64151618
H       16.86796245      19.53721859      21.33595125
O       21.24328733      20.14322239      18.44668074
H       21.77781889      19.52444642      17.94906225
H       21.42236247      20.99295723      18.04404612
O       19.87998648      22.04805154      20.66366364
H       20.38121994      22.51692650      21.33086161
H       19.42951009      22.73628121      20.17413040
O       16.43513225      17.60664008      19.88378760
H       17.22259164      17.61482316      20.42791312
H       15.76270243      17.21425320      20.44065609
O       18.31993179      24.08414110      19.75936176
H       17.37865536      24.05671073      19.93105366
H       18.68523822      24.56630829      20.50118239
O       21.06296128      22.88865275      22.96418867
H       20.46454054      22.32102648      23.44990966
H       21.66998654      23.21977966      23.62608530
O       19.24559847      18.75736816      16.00681389
H       19.38009518      19.60910292      15.59125359
H       19.81588044      18.16094724      15.52174440
O       15.63892705      19.86496986      18.59366982
H       15.90439909      19.07867973      19.07064389
H       15.22712594      20.41988362      19.25603105
O       18.72634264      18.29595422      24.68920669
H       19.54864468      18.48405945      25.14160875
H       18.77552451      17.36322204      24.47986567
O       24.40145198      21.04059464      20.46474330
H       24.46934880      21.86383528      19.98111461
H       23.47530938      20.80523756      20.40907684
O       15.36944333      18.94995842      22.13915035
H       15.02838171      19.84422077      22.12487968
H       14.68247163      18.42453245      21.72899273
O       22.08038439      15.35305469      19.61277512
H       22.11315120      14.67372066      18.93922969
H       22.95898554      15.35698056      19.99261252
O       18.36906418      22.48832947      13.05793629
H       18.10406269      23.36401152      12.77653445
H       19.00832361      22.64294539      13.75340241
O       19.40798057      14.43993184      20.16801124
H       20.18702803      14.99594691      20.18082264
H       19.05624046      14.49915081      21.05627012
O       23.30417434      18.52542247      24.01012076
H       23.29263206      18.27935057      24.93507873
H       24.23362368      18.58699113      23.78974592
O       23.23339937      22.61188826      17.55612207
H       22.73237502      22.40624684      18.34537363
H       24.13321944      22.71947241      17.86431249
O       16.57948426      18.28842532      16.28436881
H       17.48718900      18.59216161      16.29131175
H       16.15491283      18.78494973      16.98396473
O       23.79671890      16.62274515      21.97232857
H       23.42911981      17.20802142      22.63456299
H       24.43882751      17.15937056      21.50761195
O       23.73493937      22.84186041      22.45748243
H       23.72561104      22.15777254      21.78802847
H       23.51093897      22.38648086      23.26907661
O       20.02109516      16.14717943      16.11424300
H       19.17748923      16.46935201      16.43167915
H       20.29452948      15.50486710      16.76914787
O       17.54714834      20.68322084      25.24495750
H       17.99725744      19.85491627      25.07899007
H       17.98071098      21.31180526      24.66777737
O       21.18677898      20.33187898      14.93390483
H       22.10381092      20.50775248      14.72330385
H       20.99165133      19.50814775      14.48711192
O       20.80906257      15.44897671      23.90576774
H       19.98436651      15.13820808      23.53222910
H       20.61328120      16.33237414      24.21803441
O       20.95637474      23.08001445      15.92718149
H       21.15183701      22.24168797      15.50857063
H       21.70486000      23.24176759      16.50149637
O       15.68208697      23.73728623      19.19407835
H       15.02006679      24.32157864      19.56362333
H       15.43313261      22.86636136      19.50350272
O       23.24406094      21.18679624      24.58525966
H       23.89324489      21.29381640      25.28048532
H       23.28614197      20.25778278      24.35855496
O       18.09212507      14.62365139      22.54144155
H       17.59175454      13.81622142      22.65941621
H       17.56085102      15.29901031      22.96318799
O       22.79543363      16.42502675      16.56084653
H       21.98934642      16.92201139      16.42134204
H       23.06950775      16.16081962      15.68260408
O       25.66552452      18.63285654      20.40712966
H       25.17219446      18.00433793      19.88004177
H       25.15186644      19.43930381      20.36207381
O       15.64631092      21.29596369      16.28053296
H       15.41183978      20.73378268      15.54215119
H       15.65375819      20.70871569      17.03638755
O       16.62584644      24.30366008      22.52039704
H       17.26176847      23.95105515      21.89789823
H       17.04196525      24.19574938      23.37563517
O       23.65680205      24.31092466      20.16965715
H       22.93316108      23.89082171      19.70480331
H       23.58535083      23.98719857      21.06761482
O       24.51211975      18.53025025      16.70341993
H       23.89953021      17.80643842      16.57279706
H       24.47363916      18.71068494      17.64267198
O       16.39596736      14.84141555      18.88983144
H       16.50552162      15.74091769      19.19825585
H       16.49418788      14.30446287      19.67613061
O       18.79611854      14.16401854      17.53212491
H       19.36107879      14.39632209      18.26906916
H       17.90862487      14.20255681      17.88863806
O       16.21536834      17.18120347      25.23789521
H       16.57860803      16.30320691      25.12209014
H       16.93552497      17.77040400      25.01328666
O       12.14715908      20.44277876      20.31876692
H       12.83764778      21.04362681      20.59883622
H       12.31375136      20.30355845      19.38651343
O       21.56488243      13.40759935      21.46433836
H       20.75421822      12.99012717      21.17318141
H       21.77430788      14.03422856      20.77172832
O       21.65597183      14.05610534      17.25986309
H       22.19062396      14.80763886      17.00378435
H       21.18758791      13.81168179      16.46167422
O       14.11279395      17.41233423      17.46066599
H       13.52703139      17.72844322      16.77277852
H       14.46211372      18.20770505      17.86265206
O       23.98691526      20.59599776      15.01367129
H       24.13289204      19.85317643      15.59945204
H       23.65897445      21.29090804      15.58444826
O       25.72371230      22.80043399      18.81093861
H       25.26717665      23.51723166      19.25140216
H       26.10536232      23.20253063      18.03062239
O       20.72358560      17.57604138      13.70941461
H       20.03170009      17.00457604      13.37631754
H       21.39087333      16.97600037      14.04244571
O       26.77961852      20.72298964      16.74379344
H       26.50387288      21.32293582      17.43680193
H       26.03351518      20.13542012      16.62411177
O       17.57363746      15.47769094      15.13434451
H       16.61812203      15.42461230      15.11422560
H       17.82235860      15.02303898      15.93911854
O       17.68955471      26.30625344      18.32318473
H       16.84710359      26.52691280      18.72044713
H       17.96930144      25.51245361      18.77909639
O       20.94470552      26.57182259      19.64163746
H       20.01271965      26.46101387      19.45360662
H       21.33887702      26.77076781      18.79235455
O       25.96873636      18.63860517      23.47561002
H       25.79909797      18.71068020      22.53632314
H       26.76508867      19.15089497      23.61566003
O       23.07133707      23.88093216      24.91722074
H       22.86066389      22.97230722      25.13227742
H       23.98468401      23.85448278      24.63203721
O       17.54482308      18.55435150      13.68305313
H       17.96250318      17.90765555      13.11423020
H       18.17418879      18.69364031      14.39067540
O       13.82067221      18.66255909      24.37599520
H       14.48103600      18.79522156      23.69588332
H       13.11184906      18.19490301      23.93429465
O       26.90416064      21.54629111      21.40223832
H       26.04512717      21.35567593      21.02546359
H       26.77116754      21.48148117      22.34793613
O       20.74889894      20.86822813      27.45871229
H       20.21497957      21.40408543      28.04524353
H       21.62972018      21.23538150      27.53343968
O       18.97920888      25.11469563      25.17322527
H       18.57491085      24.97006926      24.31773819
H       18.53345926      24.50022062      25.75628580
O       22.52568381      15.99653935      26.10689349
H       23.39616303      16.33660483      25.89988324
H       22.15514327      15.75310948      25.25855779
O       24.02365496      14.94000759      24.09736044
H       23.50338067      14.42603407      24.71491830
H       24.59473945      15.47324776      24.65030643
O       12.43636529      17.68352943      21.71388096
H       12.36505248      18.55763327      21.33035939
H       12.84003332      17.15246208      21.02740341
O       18.45532165      19.14953207      27.66195098
H       19.29674246      19.60165149      27.72384513
H       18.39242403      18.88410693      26.74444064
O       15.47952806      22.36276193      25.84816797
H       16.21638376      21.77702165      25.67443301
H       14.86094456      22.18707280      25.13914073
O       15.01524307      14.34522238      22.78370388
H       14.54890349      14.98651702      23.31989453
H       14.91915644      13.51985992      23.25886281
O       15.39866989      19.56535469      26.48302660
H       15.63923586      18.73439698      26.07330824
H       14.73335117      19.33028277      27.12980635
O       16.83817455      26.68235637      21.21842846
H       16.73323799      25.94230219      21.81637492
H       17.48240125      26.38303800      20.57685827
O       12.41015284      20.32857123      17.21783629
H       12.39380114      20.50642292      16.27744635
H       12.89917696      19.50970521      17.29874175
O       16.00850392      12.87128941      20.72473608
H       15.77030283      13.33093710      21.52985475
H       16.90776543      12.57854854      20.87259873
O       17.80026312      23.34401768      26.87272940
H       17.18351603      22.66732647      27.15191370
H       17.91597563      23.89685809      27.64552300
O       13.14517605      21.27969280      24.07150205
H       13.29087238      20.34374399      24.20935791
H       12.20991745      21.40339109      24.23343389
O       24.11694582      25.67356522      17.86100418
H       23.94521123      25.24559235      18.69979993
H       24.56436643      25.00759951      17.33895407
O       14.94331548      16.16876475      15.18149605
H       14.09567004      16.59408473      15.05175801
H       15.43382491      16.77541093      15.73612453
O       14.93692808      19.68164376      13.99383660
H       14.87120577      20.38297031      13.34572126
H       15.82958172      19.34954333      13.89838699
O       17.95682256      25.70209332      15.43955870
H       18.20971314      26.52002090      15.01145511
H       17.86847379      25.93260868      16.36437706
O       18.48279141      11.81053179      20.33602666
H       18.69350726      11.47564471      21.20762364
H       18.92163373      12.66010868      20.29280202
O       13.28347392      23.61993640      22.69217844
H       13.20124944      22.76445779      23.11363702
H       12.80656067      23.52794517      21.86736137
O       26.30963984      15.83336838      22.92493577
H       26.60850146      16.73216503      23.06305951
H       25.37610716      15.91799263      22.73106134
O       26.17919857      15.68702125      17.55756791
H       27.08754506      15.80383713      17.27919308
H       25.72823438      16.46911175      17.23945223
O       21.69011221      12.88853625      24.22796275
H       21.55788776      13.82145506      24.05940704
H       22.63165767      12.75585870      24.11786888
O       19.52058016      12.01015991      22.84232727
H       20.20052338      12.37832921      23.40656163
H       18.69804190      12.29381723      23.24132749
O       20.44376975      23.92861290      27.13451796
H       19.99866130      23.37267385      27.77408195
H       20.28607072      24.82138624      27.44163130
O       18.58705585      15.73358374      27.30585865
H       18.97879937      15.93667578      26.45643386
H       19.01925433      16.32915049      27.91801594
O       14.08943023      25.55876720      20.43664627
H       13.87928558      25.13859684      21.27062945
H       14.92293231      26.00211771      20.59459069
O       20.53335199      14.66580112      13.89129187
H       20.36294873      15.30605609      14.58213784
H       19.93744291      14.91184151      13.18376919
O       23.19687833      19.11084951      12.87624845
H       23.54690592      19.63646657      13.59558095
H       22.58023810      18.51067593      13.29550772
O       13.85402368      15.95578572      24.64275104
H       14.53833284      16.58690703      24.86554850
H       13.35024897      15.85301181      25.45014215
O       16.06388592      14.25887503      25.29203326
H       15.73730718      13.62720995      25.93279639
H       15.30524412      14.80453120      25.08478023
O       23.58900926      15.17545949      14.27891093
H       22.65326607      15.00148528      14.17717847
H       23.72634142      16.01442902      13.83902248
O       25.45734189      16.79040607      25.81271271
H       25.83837464      17.21697280      26.58023255
H       25.63923829      17.39056934      25.08956017
O       16.86300671      12.30659404      23.34015268
H       16.56682982      12.89996577      24.03038531
H       16.05955452      11.90957801      23.00388686
O       28.17973100      18.79872923      18.92542308
H       28.71282321      19.34191774      19.50593214
H       27.43594158      18.52966616      19.46450953
O       16.76352721      21.20965801      28.20242552
H       17.34977189      20.47499964      28.02124579
H       16.06123889      21.12082538      27.55811836
O       18.67508646      16.11962894      12.53790845
H       18.34987974      16.02980367      13.43367842
H       18.05424660      15.62163010      12.00613138
O       19.46359943      12.43200287      15.54095460
H       19.16215426      13.00190507      16.24846723
H       19.99542250      13.00101818      14.98452165
O       21.48938323      25.90490650      14.48108465
H       21.30580642      25.06707582      14.90602128
H       22.41519251      25.85549629      14.24303497
O       14.32641056      26.03306541      17.69934156
H       14.38471135      25.99258499      18.65390648
H       13.61552198      25.43201233      17.47662096
O       17.05876020      12.09922033      16.76749609
H       16.23979738      12.36670620      17.18460886
H       17.63310976      11.86304801      17.49590330
O       19.87356875      27.54108270      24.32991854
H       19.57238795      26.73909250      24.75692402
H       19.07733086      27.93930963      23.97827615
O       24.53056160      21.24329336      27.63023898
H       23.96659064      20.60644786      27.19138090
H       24.00939314      22.04565434      27.65908580
O       14.65811552      12.83756365      17.81160064
H       15.13136674      13.45809598      18.36586118
H       14.55611955      12.05777031      18.35726630
O       22.36083333      27.33999894      16.62105765
H       21.95033897      26.90326228      15.87474182
H       22.89495848      26.66062719      17.03263533
O       13.16546048      14.85833646      16.76907574
H       13.63810811      15.68891193      16.82366920
H       13.80621922      14.19953823      17.03674152
O       11.87563881      15.70492627      19.00917524
H       12.32562918      15.39301021      18.22403265
H       11.00000000      15.32257012      18.95179681
O       22.53250104      17.48594665      28.51076147
H       22.50836321      16.99018284      27.69230717
H       23.35835358      17.96854646      28.47474963
O       23.68458966      22.07297756      12.61003188
H       23.03468777      21.60167066      12.08875539
H       23.74941523      21.57184305      13.42298557
O       12.79186818      17.81737280      14.95397441
H       12.05480982      18.40477738      15.12110509
H       13.48863668      18.39121396      14.63545937
O       23.05148206      23.52029701      27.79141575
H       23.40480435      24.28907699      27.34378584
H       22.10286240      23.59859891      27.69031487
O       28.17474432      20.22510748      23.59788820
H       28.55186226      20.26932799      22.71921964
H       28.91186632      20.39552355      24.18426808
O       20.78732799      13.42369268      26.81881287
H       21.11193095      13.18642208      25.95015447
H       20.06211365      14.02465588      26.64811071
O       14.63447250      23.64613294      13.86571450
H       14.50640482      24.45840494      14.35565809
H       14.88991710      23.00407300      14.52808820
O       19.83542495      17.31875600      29.15219980
H       19.43352881      18.18494365      29.08563933
H       20.77460242      17.48275808      29.06687191
O       12.21983482      24.59691155      18.64707615
H       11.94479651      23.72851034      18.94112567
H       12.81474682      24.90457845      19.33092747
O       26.02912876      13.19246167      22.09514895
H       25.08364491      13.04496676      22.11833068
H       26.13543861      14.10866125      22.35109498
O       19.10986618      22.32026429      29.07441129
H       18.94484243      23.03013395      29.69496272
H       18.24041879      22.06191140      28.76855696
O       21.73583534      11.40668787      16.64944660
H       22.12470574      12.12982347      17.14146953
H       20.98873381      11.79850628      16.19717514
O       13.73211583      17.45793951      26.90705399
H       13.80091294      17.92326483      26.07340470
H       13.19760091      18.02996637      27.45779069
O       28.23451973      23.75475676      20.53555254
H       27.78024188      22.96654267      20.83317987
H       28.87511597      23.43676752      19.89935200
O       27.36149196      23.61751105      24.16658795
H       27.24652945      23.06298369      23.39489185
H       27.16307785      23.04340722      24.90636391
O       21.24462420      18.47024544      11.09391004
H       20.89503834      17.94755094      11.81558311
H       22.08167230      18.80050184      11.42027336
O       20.70971859      29.01519847      20.81342901
H       21.22668053      29.58692198      20.24587776
H       20.77399319      28.15123417      20.40640776
O       24.44927962      27.08396970      24.03609808
H       24.33872058      26.66589198      24.89004161
H       25.16060956      26.59655957      23.62055876
O       26.47786135      13.10979367      18.46159869
H       26.14157770      13.10734737      19.35777901
H       26.38941760      14.01865053      18.17456427
O       28.96650510      17.11077007      20.90793189
H       28.44593259      17.82519097      21.27513602
H       28.97690031      17.28092776      19.96603479
O       13.54841338      26.19485611      23.52763973
H       13.46947786      25.29560008      23.20930089
H       14.48690036      26.38005828      23.49337321
O       16.99971397      17.04978619      29.09703187
H       17.51648232      16.97973997      29.89969982
H       17.43896023      17.73069824      28.58746996
O       29.38132756      20.62055838      20.76588884
H       29.99360985      21.31149586      21.01876755
H       28.51594795      21.01418035      20.87729670
O       18.00174294      29.15699738      21.02593997
H       18.91679439      28.87625383      21.01615496
H       17.50343361      28.34721133      21.13624054
O       23.69095124      25.89739083      26.63430549
H       23.12086823      25.59174382      25.92874393
H       23.53570665      26.84097192      26.67656306
O       17.43803998      28.51331234      23.60785952
H       16.78671593      28.48329723      24.30865044
H       17.14899978      27.84835278      22.98294642
