391
Lattice="41.262774561076355 0.0 0.0 0.0 41.262774561076355 0.0 0.0 0.0 41.262774561076355" Properties=species:S:1:pos:R:3 charge=0 spin=1 spin_multiplicity=1 metal=La geometry=droplet boundary=pbc droplet_radius=9.7223 pbc="T T T"
La      20.76971333      20.80924584      20.93484804
O       20.11528350      19.09899062      22.48621797
H       19.25434505      18.69017474      22.63096109
O       23.07109502      21.02752057      20.28986862
H       23.85428791      20.57728428      20.62630907
O       19.12276146      22.30122632      20.02845751
H       18.21838188      22.47337963      20.31438900
O       22.32549391      20.70845051      22.94008794
H       22.08801865      20.72383597      23.86723444
H       23.28068906      20.64656568      22.93800799
O       21.80457136      18.56317096      20.35535126
H       21.35347826      17.73473422      20.19274923
H       22.73306996      18.35543805      20.25061716
O       21.54488035      23.22699269      21.00707177
H       21.71711088      23.76417990      21.78037532
H       21.73025346      23.80517164      20.26708680
O       21.02395780      21.08171314      18.42233509
H       21.82402205      21.00422617      17.90259976
H       20.34118279      21.28489599      17.78298631
O       19.22014954      21.71021364      22.73448942
H       19.45833921      22.04379195      23.59948828
H       18.26710794      21.79227396      22.69970945
O       18.69922699      19.56493409      20.14975274
H       18.00595117      19.18296371      20.68798977
H       18.43733648      19.37287283      19.24933191
O       20.05494133      22.97806987      14.29790162
H       19.96765494      23.90463049      14.52172821
H       19.82111467      22.51394058      15.10173055
O       18.75798234      21.79297297      17.09676700
H       18.25094480      22.34591102      16.50228883
H       18.62734731      22.18568106      17.95986994
O       20.28889644      24.17724559      18.44129624
H       19.73106968      23.71385749      19.06606228
H       19.81372658      24.98559709      18.24890782
O       18.51571899      24.33739588      22.74400429
H       18.40957263      23.95896437      23.61678971
H       19.28912791      23.90166735      22.38593847
O       21.56768937      17.53590562      24.17313304
H       22.07756381      16.78923522      23.85889872
H       21.11721376      17.86354626      23.39470181
O       24.65859634      20.56219005      24.33064211
H       25.52227045      20.76249475      24.69144249
H       24.13048367      20.32143096      25.09180169
O       24.51429998      21.15259359      17.98013407
H       24.40532354      20.32141729      17.51807137
H       23.93451100      21.08333907      18.73860648
O       21.99658068      24.58045575      23.62385785
H       21.36140628      25.19692234      23.25950327
H       22.83550480      25.03764065      23.56537593
O       21.70143793      19.90949302      15.95937733
H       21.02866002      20.51516254      15.64830474
H       22.52166871      20.26629253      15.61857326
O       18.27288073      22.77552692      25.09447348
H       17.36260823      23.04477399      24.97142139
H       18.51350983      23.12753092      25.95145811
O       24.89443240      17.71462508      19.99138155
H       25.66383414      18.04238153      20.45703003
H       25.18209181      17.62993004      19.08236524
O       15.83141663      22.70450383      21.35035111
H       15.19617877      22.44283725      20.68384132
H       16.50209713      22.02207455      21.32370941
O       25.26887661      23.68650045      20.40974990
H       24.47892475      24.20835816      20.26878029
H       24.94411525      22.80772510      20.60600430
O       22.91454531      25.79241914      19.95784455
H       22.74177804      26.07759886      20.85509359
H       22.43158950      26.41266266      19.41169118
O       16.34934830      17.95872020      18.82964149
H       16.11803149      17.02989530      18.83258954
H       16.41006536      18.19385647      19.75552281
O       22.07752892      22.73305551      26.19621677
H       22.04358394      23.23434587      25.38148519
H       21.28901419      22.19072728      26.17733688
O       18.20479555      26.00089777      20.33999961
H       18.14712958      25.69289826      21.24445678
H       17.36480295      26.43061588      20.17879598
O       19.94034582      16.17062733      17.48295080
H       19.49647921      16.81929547      18.02925101
H       20.55003977      16.68184396      16.95082046
O       19.99508493      26.59461855      22.40515034
H       19.51708423      25.79776120      22.63485782
H       20.57579230      26.32900184      21.69208755
O       23.71446819      23.24073447      16.13757864
H       24.05120790      22.49395348      16.63271131
H       23.96686219      23.06159892      15.23179745
O       17.44392974      20.44588423      26.22761302
H       17.43111638      19.60270088      26.68050317
H       18.37367344      20.64403350      26.11560694
O       24.30016857      18.20747797      16.35874224
H       25.17484900      18.56940141      16.50078943
H       24.04715670      18.52451940      15.49173499
O       26.87097974      20.52716928      19.20632691
H       27.32506790      21.31450819      19.50654886
H       25.94848306      20.78032953      19.17253907
O       25.37236895      17.18667567      23.43796062
H       24.53137615      17.50741450      23.11224672
H       25.14072973      16.52701275      24.09173425
O       17.22739159      23.66222358      15.84732538
H       16.58931938      24.23595094      16.27151001
H       16.70240561      22.95485631      15.47282157
O       23.73300989      15.50586504      18.90922615
H       23.97593050      15.40096348      19.82912673
H       24.53018846      15.82361559      18.48522997
O       22.94858137      19.31104819      26.79616309
H       22.03417294      19.06087746      26.66386162
H       22.92743644      20.26473989      26.87526359
O       20.62274656      17.75714644      26.71410443
H       21.11799288      17.44320636      25.95753021
H       21.04326563      17.34007035      27.46606393
O       24.22813991      20.70770774      15.29006336
H       25.17739182      20.83049605      15.28136356
H       23.91628124      21.19370892      14.52666382
O       18.36088841      16.52880266      25.34957717
H       18.06819581      17.03694159      26.10612044
H       17.66512274      15.88687227      25.20791786
O       19.18636776      26.59488149      17.86003282
H       18.80092328      26.62959290      18.73550955
H       19.27568799      27.51191645      17.60060919
O       15.37564394      19.53660283      24.71308299
H       16.21301360      19.69952508      25.14724913
H       14.71795227      19.84237375      25.33772500
O       23.02898731      15.15412495      23.81378478
H       23.60821452      15.43134085      24.52362915
H       23.34932704      14.28634500      23.56767048
O       27.03016132      18.34132753      21.55480921
H       27.52585535      17.63959513      21.13280102
H       26.49100780      17.89511610      22.20783347
O       21.26637554      17.36325338      15.10744752
H       21.51149525      18.22291593      15.44968788
H       20.30935579      17.37473106      15.09284292
O       15.99535357      24.16035394      24.55269480
H       16.05732149      24.95950340      24.02948170
H       15.41617759      23.58821266      24.04926519
O       20.37569425      14.77132290      24.27410922
H       19.96681698      15.43860740      23.72294445
H       21.31089224      14.84200039      24.08269015
O       14.69437665      21.58420583      17.71210198
H       15.26967290      22.29149900      18.00365376
H       14.79426214      21.57055052      16.76022580
O       20.24868167      25.55006729      26.13345557
H       19.85042878      24.78899649      26.55582710
H       20.43251542      25.25987386      25.24002132
O       23.56026025      27.85758599      23.04687604
H       23.89767452      28.02416877      22.16674331
H       22.73257086      28.33714283      23.08133387
O       17.76337267      20.45442255      14.41977256
H       18.03087386      20.83002435      15.25858020
H       17.95504223      21.13863668      13.77841021
O       16.31408860      18.41643392      15.80467991
H       16.85333752      19.04529300      15.32511896
H       16.42497440      18.65741830      16.72438785
O       21.57399941      13.62871126      20.65542235
H       22.19620909      14.14767629      20.14575357
H       20.87443485      13.41760020      20.03713975
O       18.50318776      16.88710221      15.28758284
H       17.78835560      17.38022091      15.69017541
H       18.87160752      16.37032298      16.00412869
O       14.13512281      24.95251413      19.52547304
H       13.30751893      25.28334874      19.17639983
H       13.96141775      24.03219660      19.72314459
O       18.31969448      16.00616623      21.20376824
H       19.20178705      16.36903716      21.12333675
H       17.77697605      16.75022305      21.46466668
O       21.73483127      27.49167355      18.19171516
H       21.02088433      26.85431534      18.17480011
H       21.92653840      27.66182402      17.26947385
O       19.16637974      23.50171973      27.55875915
H       18.82015349      23.16284262      28.38430232
H       19.99140625      23.03268661      27.43397523
O       13.57719622      19.14310468      21.38205371
H       12.63921515      19.33329992      21.39783687
H       13.64769998      18.25414884      21.72993095
O       26.03515058      16.65241577      17.76228501
H       25.97519872      16.28856224      16.87896841
H       26.43075607      17.51542019      17.64000865
O       26.04440098      23.32858313      23.42272116
H       25.77795124      23.51413594      22.52227319
H       25.60364612      22.50686430      23.63892747
O       13.63411792      21.99264030      22.79869617
H       13.41643673      22.92452020      22.81982896
H       14.53509798      21.96389623      22.47676364
O       15.94920916      26.21576001      22.77148253
H       16.09584849      25.97104426      21.85778512
H       16.46514488      27.01292434      22.89219378
O       13.40159816      21.75224796      20.09933586
H       13.37234495      20.84883520      20.41433026
H       13.82734683      21.69449882      19.24397924
O       27.88281541      23.07677155      19.96933810
H       28.20765025      23.44141400      20.79259386
H       26.93090228      23.15635477      20.03065485
O       26.85940098      19.07665071      16.81664104
H       27.01135792      19.54551332      17.63719498
H       27.18457840      19.66852243      16.13827583
O       27.95558104      20.15757730      23.35570756
H       28.05781191      19.24046609      23.61004540
H       27.01004352      20.30604131      23.36791720
O       24.40506492      22.13378803      27.55061987
H       23.70313295      22.11247516      26.90018223
H       25.03485332      22.76550552      27.20344352
O       27.43392248      22.33179530      17.25056847
H       27.58221440      22.68048516      18.12957741
H       27.87659964      21.48310904      17.25121362
O       17.13266557      14.83300045      17.52463327
H       18.00431947      15.22588091      17.47884830
H       16.54019699      15.52990219      17.24260352
O       17.58879882      18.07754304      27.55741486
H       18.34689147      18.48589815      27.97547404
H       17.15365777      17.59985559      28.26360096
O       19.39259884      26.01197573      15.21112371
H       19.33637045      26.21264598      16.14536226
H       19.96733423      26.68920088      14.85436445
O       23.13730978      15.45192114      15.60223453
H       22.64853059      16.10918668      15.10692780
H       24.02945811      15.50791929      15.25993728
O       26.29514653      15.12170276      21.92224972
H       26.24254686      14.33334615      22.46258200
H       25.91103154      15.81050164      22.46469198
O       15.72629272      22.70739873      26.86082938
H       16.18191053      21.92163486      26.55880392
H       15.63068060      23.24617984      26.07545999
O       20.00312784      19.35397683      28.82706570
H       20.01483602      19.87275635      29.63140554
H       20.76778031      18.78267125      28.89881795
O       25.04980150      26.86064185      17.85091010
H       25.36130453      27.60733707      18.36242153
H       24.20273907      26.64074109      18.23867387
O       15.30292246      21.41699679      15.06632929
H       16.13611927      21.10855585      14.71012836
H       14.74727726      21.54807165      14.29801319
O       13.83394138      18.15991400      17.81332523
H       14.16652517      17.46170854      17.24929598
H       14.50274838      18.26029123      18.49071244
O       14.97875369      16.85243707      24.90316791
H       15.25268578      17.75944265      24.76702855
H       14.17867277      16.91904097      25.42438406
O       25.42420181      24.50073744      26.40154999
H       25.04058893      24.83045453      25.58892484
H       24.76883700      24.69383117      27.07195556
O       18.83997188      28.64571077      20.34128355
H       18.88556761      27.69687069      20.45899241
H       19.67483672      28.87745946      19.93443580
O       16.55395180      18.37670555      22.10311770
H       16.02280261      17.59521649      21.95018883
H       16.17035837      18.77885900      22.88245109
O       14.82722429      24.75480831      16.51339677
H       14.00148600      24.88751928      16.04780476
H       14.58687087      24.77791892      17.43964078
O       15.24643699      14.83130949      19.48436256
H       15.10747762      14.03821786      18.96674514
H       14.36450253      15.13826417      19.69460594
O       23.72689925      22.57267913      13.37439844
H       23.77039396      22.86061657      12.46256946
H       22.83859799      22.79412978      13.65388427
O       19.20593236      13.01792885      18.46739673
H       18.99235716      13.11575973      17.53947077
H       18.40418101      12.67656508      18.86349950
O       25.16172952      15.37935668      25.48683063
H       24.76583154      14.84121830      26.17232587
H       25.70702673      16.00782597      25.96002102
O       18.02683977      28.44253739      22.92893437
H       18.14944454      28.82946139      22.06204929
H       18.62893014      27.69863486      22.94704654
O       16.19160615      27.72896442      19.73327806
H       15.62585585      27.75761385      20.50485932
H       16.93345072      28.29030313      19.95866067
O       16.71740553      26.84899210      16.65720603
H       17.47740210      26.52701813      17.14194288
H       16.11070853      26.10875956      16.64284004
O       13.57667918      24.89006730      22.66175395
H       14.45110701      25.27403383      22.72638777
H       13.44527645      24.74886977      21.72418879
O       26.03513802      17.64203937      26.74409263
H       25.71156397      17.98380879      25.91059078
H       25.84862088      18.33585627      27.37659663
O       13.59539274      16.45781647      22.51349126
H       14.05461087      16.55911796      23.34721097
H       12.66730087      16.49803179      22.74427264
O       19.73775171      14.80217434      26.93746979
H       19.96187771      14.73071879      26.00962633
H       19.79826783      15.73835344      27.12757061
O       14.96757663      16.08990825      16.46116129
H       14.98369032      15.23450056      16.03191793
H       15.57455713      16.62597312      15.95082712
O       22.27497628      17.77211883      28.99754842
H       22.65771676      18.07491833      29.82098878
H       22.68216808      18.32109918      28.32743854
O       13.11108010      20.94927455      25.25556804
H       12.36845698      21.46643931      25.56747083
H       13.31344541      21.31501594      24.39445634
O       21.80190981      21.05392001      12.19703208
H       22.68963326      21.22141095      12.51345855
H       21.92100198      20.47802772      11.44178578
O       27.49444237      25.66585890      17.95263934
H       26.66278315      26.13039879      17.85895126
H       27.72158658      25.76448571      18.87725283
O       29.41531019      19.62651839      19.54340365
H       29.81135427      19.59335108      18.67261041
H       28.47992218      19.74355958      19.37732396
O       28.25895283      17.32368351      24.10498107
H       27.32476710      17.32057385      23.89636856
H       28.51606119      16.40238133      24.06851980
O       16.26224681      14.46725696      25.15208813
H       15.54081041      13.84007288      25.20109304
H       15.83425680      15.31909815      25.06593142
O       23.24547161      24.33246035      28.71614514
H       22.99072610      24.84915451      27.95170828
H       23.66901036      23.55580714      28.35055443
O       22.98914021      25.53616276      13.71586529
H       22.06895481      25.45257610      13.46585741
H       23.35799341      24.66530801      13.56824703
O       28.72152802      24.53843128      22.53973706
H       28.67203759      25.29826106      23.11977260
H       27.87283128      24.10658868      22.63698755
O       26.50803998      22.28413125      14.23868736
H       26.86119888      23.17301328      14.27609554
H       25.60484605      22.39700935      13.94249301
O       25.48656203      19.67661568      28.46832573
H       25.09345226      20.49782105      28.17282906
H       25.46226440      19.72905799      29.42377916
O       25.73066308      16.10825525      15.11015300
H       25.80443078      15.91055373      14.17650195
H       25.32375146      16.97412009      15.14069550
O       20.81466208      29.51265133      23.15611190
H       20.78984479      30.26277456      22.56203187
H       19.93073133      29.14730699      23.11840528
O       24.07353248      12.90619843      18.18496693
H       24.55851031      12.68437474      18.97983962
H       23.79023361      13.81031840      18.32113105
O       14.87435916      20.00958730      27.95524135
H       14.92703649      20.93113985      27.70186841
H       15.77741659      19.69574190      27.90812262
O       22.20649056      12.70403282      25.11483524
H       21.36463079      13.14301521      24.99318648
H       22.62448432      13.18102327      25.83176840
O       28.12820881      26.37805736      20.61473617
H       28.94176112      26.82322890      20.37769866
H       28.39163316      25.72683580      21.26492838
O       18.64775097      13.34512043      15.82488939
H       17.87851936      13.84292051      16.10185446
H       18.72199979      13.52032774      14.88679485
O       27.57232148      14.69649161      18.86222992
H       27.05067839      15.36459055      18.41752311
H       27.25700080      14.70798789      19.76592928
O       24.38312093      12.16054122      20.78237917
H       23.58239826      12.67086152      20.66134928
H       24.07630759      11.27330877      20.96923739
O       20.51412185      29.88879139      18.59433736
H       20.95221218      29.05326382      18.43246587
H       20.37791671      30.26110119      17.72309376
O       19.05601118      11.63038887      22.07016587
H       19.73246282      12.17946198      21.67372705
H       18.82772693      11.00000000      21.38699092
O       24.39679981      15.76916391      28.06778649
H       23.64943735      16.29046406      28.36092017
H       25.04536966      16.41537414      27.78849931
O       17.28685723      18.69778364      12.39849753
H       17.49911333      19.30104026      13.11071986
H       17.31318843      19.23917635      11.60955365
O       11.65169212      23.37399818      21.48092407
H       12.25904493      22.82043077      20.99009056
H       11.45142029      24.09668209      20.88607030
O       13.61928858      25.20743618      25.36283921
H       12.76320772      25.00417214      25.73972266
H       13.50020235      25.09132237      24.42020042
O       24.36790696      12.40024943      23.49175336
H       23.46614984      12.37839621      23.81204755
H       24.28358170      12.41980147      22.53847543
O       12.72003036      15.65634689      20.06313957
H       12.99972559      16.04859903      20.89026754
H       12.57238322      16.40219170      19.48163490
O       27.80925407      26.64050297      24.00515538
H       27.25965520      26.66539075      24.78845195
H       27.37918504      27.23577725      23.39121645
O       12.80091464      18.26474602      25.76337849
H       11.95868345      18.03172931      25.37276144
H       12.87768212      19.20847522      25.62297274
O       24.29670014      27.88143671      26.50705596
H       23.91679071      27.07138933      26.84723812
H       24.11566171      27.85535399      25.56749404
O       28.26976486      20.30059899      14.83895945
H       28.81116370      20.14792921      14.06448474
H       27.68548722      21.01542222      14.58621603
O       18.60712331      16.32479777      12.62837034
H       18.27153610      17.16507303      12.31603949
H       18.60500505      16.40510675      13.58219308
O       26.80175460      28.33073567      22.12726866
H       27.27006694      27.76656061      21.51194607
H       25.89240472      28.03581954      22.07890428
O       26.70247315      28.35855863      19.40761347
H       26.01477350      28.35491119      20.07341204
H       27.22480003      27.57931279      19.59783016
