391
Lattice="41.66128467772588 0.0 0.0 0.0 41.66128467772588 0.0 0.0 0.0 41.66128467772588" Properties=species:S:1:pos:R:3 charge=0 spin=1 spin_multiplicity=1 metal=Lu geometry=droplet boundary=pbc droplet_radius=9.631 pbc="T T T"
Lu      21.32000545      20.70935284      20.78336399
O       20.12694173      18.92926133      20.51230464
H       20.03940350      18.15054443      21.07376083
O       23.39386230      20.66170134      20.18132821
H       24.16004334      20.28317079      20.62739685
O       20.06352351      20.60081347      22.53695241
H       19.31838744      21.15274537      22.80046601
O       21.27853653      20.35350857      18.51143635
H       21.98775861      20.02976224      17.95607683
H       20.54818757      20.49596547      17.90933314
O       22.29935595      19.11898927      22.12560700
H       22.01455676      18.82720425      22.99162245
H       23.08309783      18.60054314      21.94341450
O       19.26025653      21.46671548      20.09500634
H       18.61407802      21.95353495      20.60656473
H       18.85706949      21.36574415      19.23275531
O       21.72004444      22.77113501      19.84580168
H       21.80702276      22.98546213      18.91696881
H       21.83687113      23.60720932      20.29698138
O       22.44187278      21.89819804      22.40140625
H       22.48864736      21.71140195      23.33903688
H       22.96664792      22.69066659      22.28810805
O       17.69759087      17.71448888      20.36745643
H       17.90352656      18.17676542      21.17993580
H       17.64988180      18.40354217      19.70476400
O       17.76335342      19.89657126      18.45425196
H       17.59352502      19.95556733      17.51408728
H       18.66190243      19.57247841      18.51593946
O       25.82270417      19.75153800      21.00019463
H       25.52704477      19.61447461      21.90021184
H       25.81439181      18.87788429      20.60918063
O       20.66333133      18.77202302      24.49329890
H       19.99128300      19.27669624      24.03516374
H       21.30161834      19.42580454      24.77859041
O       19.57165476      24.65937123      20.40659483
H       19.90492058      23.80479288      20.13298637
H       18.98657492      24.92692848      19.69784485
O       24.59670455      20.23374614      23.72020258
H       24.66649894      21.17385319      23.55419258
H       23.95279760      19.92467011      23.08295249
O       21.96573215      25.04559206      21.89182715
H       21.07276529      24.86000737      21.60130978
H       22.12191663      24.42186637      22.60091426
O       24.23103213      27.44914529      22.93364538
H       25.11299126      27.40586629      22.56417702
H       23.81603568      28.18209346      22.47889626
O       20.01950471      16.89804278      18.50182519
H       19.99662669      17.54563948      19.20632995
H       20.20451391      17.40788056      17.71311176
O       22.42723436      20.67877493      25.30035728
H       22.69989510      21.50957693      25.68978763
H       23.20113247      20.36874594      24.83004294
O       19.33705128      20.63914619      16.36371898
H       18.95577456      21.44965259      16.70126789
H       19.12352826      20.64387070      15.43065016
O       21.81380529      17.96546496      16.75840965
H       21.30074900      18.75677372      16.59459408
H       22.13447806      18.06856267      17.65438492
O       17.92343761      22.76167379      17.36453889
H       17.03364212      23.04212948      17.15043513
H       18.44537091      23.56268173      17.31759481
O       23.01524986      24.21591833      24.55871060
H       23.82088531      24.22916627      24.04198258
H       23.06165765      25.00680707      25.09590067
O       17.91326717      17.60228558      23.80230888
H       18.29884403      18.15617476      23.12350912
H       18.30175517      17.91730097      24.61844258
O       23.13761667      15.63776293      21.98308471
H       22.72390107      16.31500303      21.44790522
H       23.28985172      14.91265691      21.37705041
O       19.04890339      24.26600720      24.40224303
H       19.61184649      24.37324590      23.63554441
H       18.26499228      24.77573872      24.19757506
O       19.42748325      15.45290288      20.72881036
H       18.77820928      16.15317774      20.79431056
H       19.95515165      15.68556368      19.96482944
O       20.96474290      23.00522382      25.87326121
H       20.23444526      23.40298143      25.39925058
H       21.74626280      23.32767691      25.42439320
O       25.31670422      16.65145905      20.69965001
H       24.74352852      16.26460367      21.36149922
H       24.73200633      16.87011255      19.97401177
O       23.88379145      23.19174462      16.22992024
H       24.15185417      22.29998840      16.00823337
H       23.56521701      23.12972030      17.13041741
O       25.55108308      24.72333772      21.48782807
H       26.26791676      24.69581323      20.85409018
H       25.02874599      23.94516955      21.29327701
O       27.16084432      21.14032600      19.02149179
H       26.63096956      20.71091393      19.69310913
H       26.92236055      22.06531723      19.08271729
O       24.41762393      25.69237965      19.12657783
H       24.64364774      25.35082742      19.99172935
H       23.67562399      26.27589019      19.28527052
O       17.64467660      21.55343873      24.43887642
H       17.87275615      21.24684474      25.31649346
H       18.05581124      22.41520340      24.37133524
O       27.61042493      21.67238898      21.71613477
H       26.90064187      21.03170721      21.67178707
H       28.36144393      21.17636371      22.04195871
O       26.15320633      19.63855013      16.98980346
H       26.60536762      20.26062112      17.55972424
H       25.42385555      20.13702865      16.62129506
O       21.00481342      26.96245550      20.20594808
H       20.31767849      26.30032202      20.13073708
H       21.51649392      26.69179421      20.96828487
O       17.54258944      18.01706661      16.37809081
H       17.70130079      17.29883962      15.76556119
H       16.68324147      18.35824580      16.13040218
O       24.20074900      20.75448590      14.94285043
H       25.06718513      20.49668403      14.62811489
H       23.80342525      19.93857516      15.24724384
O       15.07159399      19.70131788      18.79280011
H       14.71640565      20.47990464      18.36399276
H       16.02021341      19.78650546      18.69742655
O       23.02413608      17.57073869      26.28197745
H       22.24997658      17.96786285      25.88297707
H       22.72786588      16.70892632      26.57478326
O       24.35387781      15.98902823      17.38649307
H       24.98603095      15.66240757      18.02675333
H       23.50092068      15.74222067      17.74395915
O       18.79511303      18.12959455      26.36291010
H       19.48037400      18.69456946      26.00590506
H       19.26618093      17.37508292      26.71651873
O       22.01440110      14.68338005      17.85610115
H       22.17616879      14.62105432      16.91473058
H       21.49200251      15.47900172      17.95767735
O       18.10432086      26.52415975      22.06233451
H       17.21683604      26.59579978      21.71095119
H       18.55714790      25.94071123      21.45342784
O       18.56478453      15.01546311      23.27101414
H       18.33847616      15.93870577      23.38343901
H       18.60980815      14.89315985      22.32272799
O       23.96616254      18.04903509      15.09745851
H       23.46793987      17.96379860      15.91031813
H       23.38607437      17.69689975      14.42238055
O       24.88254397      16.40024335      24.67740249
H       24.18573050      16.81104447      25.18918883
H       24.48302817      16.22477022      23.82544700
O       14.79536222      21.28877813      22.97809705
H       15.01458912      20.47697452      23.43542222
H       14.52513462      21.88985000      23.67230271
O       21.89605151      14.77565500      24.36096707
H       22.25457976      15.00118508      23.50258166
H       21.23384834      15.44629175      24.52819495
O       27.29057298      17.53445578      19.04947074
H       26.78360426      18.10491398      18.47172339
H       26.65275007      17.20745756      19.68388854
O       21.85463806      25.85775267      16.98970333
H       21.84587888      26.36882442      17.79899980
H       22.77521625      25.83814755      16.72820137
O       16.92009346      23.61519710      21.92215544
H       16.01652086      23.63220278      21.60672048
H       17.20248468      24.52925498      21.89076689
O       20.95404704      26.96978836      23.93074761
H       20.10950469      26.57383465      24.14569114
H       21.34083002      26.37577352      23.28749249
O       18.42902531      20.79952268      27.21598426
H       19.08041022      20.68534279      27.90800485
H       17.83152990      20.05960012      27.32436176
O       16.05024767      16.23058888      22.32580386
H       16.67717257      16.86068180      22.68102197
H       16.23393495      15.41775321      22.79674865
O       15.49034969      20.42779683      15.71805681
H       16.38765739      20.34956992      15.39409496
H       15.53626336      20.12934219      16.62637867
O       24.83703977      22.49784757      26.74602995
H       25.66634262      22.91663276      26.51557914
H       24.20511800      23.21625313      26.77431726
O       20.54196196      15.59647556      15.75878235
H       21.05276996      15.41513543      14.96984459
H       20.87280856      16.43883957      16.07054388
O       14.58559729      17.97085553      20.83426005
H       15.09896125      18.49818334      20.22220232
H       15.22557780      17.39043680      21.24629267
O       15.44113486      18.52512060      24.46210900
H       14.97436169      17.78946707      24.85855387
H       16.27904627      18.15560799      24.18354709
O       27.44628638      23.75164099      23.46203963
H       27.85595521      23.06580643      22.93475011
H       26.67160375      24.00839419      22.96186321
O       21.93799617      20.48460729      28.07579853
H       22.01512522      20.36578706      27.12913877
H       22.17215853      21.40105486      28.22250802
O       18.23604589      19.75389934      14.03938746
H       18.99253834      19.28462926      13.68762532
H       17.95701476      19.23046282      14.79064486
O       27.63439219      24.56723709      19.74603007
H       27.89041006      23.92192718      19.08704463
H       27.74836526      25.41237241      19.31130225
O       27.40983875      21.33346001      25.11770333
H       27.46271963      22.13736338      24.60081376
H       26.80306717      20.77508413      24.63162056
O       22.76823562      22.69261872      13.68191990
H       23.42559163      22.02178493      13.86657345
H       23.27680468      23.47987781      13.48746558
O       23.35137516      13.50258149      20.12894974
H       22.86398958      13.81736340      19.36763542
H       23.18800800      12.55956843      20.14536228
O       20.40825695      13.32802170      22.11494432
H       20.87224352      13.86713680      22.75549347
H       20.17466128      13.93619207      21.41366427
O       14.02074854      22.88383385      20.91553289
H       13.07442681      22.93854945      21.04862389
H       14.33783490      22.36736755      21.65644493
O       27.53712935      17.37474916      23.78580521
H       26.69337527      17.02129384      24.06755020
H       27.89433140      16.70610774      23.20137626
O       15.12911190      23.52973325      17.02796376
H       15.52721243      24.23641913      16.51968936
H       14.75544056      23.96591702      17.79369563
O       24.93925431      25.69332050      16.01702475
H       24.98287952      24.74231197      16.11658101
H       25.46362259      26.03475353      16.74138187
O       26.37450579      17.12828151      15.96608332
H       25.67636024      16.53936325      16.25243960
H       26.26780806      17.90904412      16.50945904
O       18.86724137      27.90727124      18.81436206
H       18.61777609      28.49851773      19.52459194
H       19.79593345      27.73043457      18.96433426
O       22.90962232      26.63704561      25.79379307
H       23.56421848      27.30907278      25.60375310
H       22.22452033      26.77775006      25.14028763
O       26.32335214      14.61884483      22.20083221
H       26.26441803      15.10048487      23.02592705
H       26.42996895      15.29724943      21.53402497
O       15.57822292      23.59843495      25.66742720
H       16.16923017      22.93165801      25.31764044
H       15.91991866      23.78735069      26.54137611
O       21.68417330      23.16416395      28.49157332
H       21.77980487      24.10036945      28.66651819
H       21.42924325      23.11701808      27.57015063
O       15.94388752      26.54013614      19.02677237
H       15.19475268      26.01326528      18.74849925
H       16.69920934      25.96387816      18.90994973
O       18.36056061      25.24821770      26.84352343
H       19.00139018      25.95378718      26.93150645
H       18.67897211      24.72519036      26.10780042
O       20.61987891      21.34283906      12.70158413
H       20.02941135      21.18255527      13.43771523
H       21.38338499      21.76616158      13.09412501
O       29.28275093      19.72240516      22.61013479
H       28.79478651      18.98769768      22.98205881
H       30.13068895      19.69632960      23.05347780
O       28.58614077      23.04577595      17.69642705
H       29.32718733      23.06328185      17.09080721
H       28.45110393      22.11682763      17.88364861
O       19.95826080      15.84293136      27.26660182
H       20.13359445      16.34519778      28.06235203
H       20.73253832      15.29121061      27.15555961
O       18.85998660      26.27378073      15.24344320
H       19.63961039      26.23159286      15.79719294
H       18.76992631      27.20161619      15.02609013
O       21.81305708      16.53673201      13.54549629
H       21.53333590      15.80034038      13.00169920
H       21.72725989      17.30155542      12.97636026
O       26.76295920      26.43973063      17.96930984
H       27.11911638      27.30794630      18.15795093
H       26.05676228      26.32661586      18.60548811
O       18.11773723      16.12221370      14.48754221
H       18.95041574      15.87988591      14.89270339
H       17.72276383      15.28814759      14.23345250
O       16.41726579      26.13484875      25.15652588
H       16.21662585      25.20771306      25.02848350
H       17.10493543      26.14184965      25.82232863
O       26.73906958      19.36756170      14.33322348
H       26.94802913      20.27530453      14.11283583
H       26.71612761      19.35207828      15.29002323
O       29.44888706      19.80593381      18.33196231
H       29.36642808      19.68736698      17.38572013
H       28.67244016      20.30802784      18.57947725
O       23.12827221      14.49950970      15.20417999
H       22.86905291      15.05207845      14.46681646
H       23.73926285      15.03946007      15.70555398
O       20.51702086      12.49527803      18.46311126
H       20.87449164      12.21020440      19.30405091
H       21.00565441      13.29080612      18.25191430
O       22.47613848      29.23983631      20.42306398
H       21.95696245      28.45173005      20.26313711
H       22.10841202      29.89411335      19.82898431
O       15.47171841      27.07153997      21.65223734
H       15.29396240      27.99245069      21.84343905
H       15.53285810      27.03205804      20.69780822
O       27.38911054      23.90584267      26.17703835
H       28.09628124      23.27087436      26.29086587
H       27.35087679      24.05569870      25.23241504
O       16.54409885      18.69030569      27.78309960
H       17.22348173      18.18844537      27.33275866
H       15.78654655      18.10550893      27.80204962
O       27.17756284      27.09228037      21.75559367
H       26.86354392      27.57216799      20.98921789
H       26.58632144      26.34304134      21.82843809
O       25.20372059      25.15735007      27.20475756
H       24.57066568      25.44150661      26.54541820
H       25.94958649      24.83563928      26.69838017
O       20.81398766      17.76147985      28.99733598
H       20.02174003      18.03181277      29.46155105
H       21.21250756      18.58128259      28.70521066
O       13.81706612      24.84460789      19.04142547
H       13.93831635      24.15161150      19.69049112
H       12.97928213      24.64035652      18.62593636
O       22.41033190      14.68966917      27.03052219
H       22.29516597      14.68172401      26.08030878
H       23.35482978      14.60153491      27.15853766
O       13.89468073      17.43519042      17.51445966
H       13.62986152      16.88388267      18.25077644
H       14.28293416      18.20947752      17.92185455
O       15.44325696      15.23632798      17.10786941
H       15.21166060      14.83390601      16.27082012
H       14.99047636      16.07964808      17.10214401
O       27.46248691      24.70917520      15.76553396
H       27.35883366      25.36982897      16.45038755
H       27.83218138      23.95079023      16.21765129
O       19.33209539      13.12486662      25.06970068
H       19.06386628      13.78741326      24.43305562
H       19.91796806      13.58953187      25.66725508
O       16.30340396      13.42565839      18.94635679
H       15.93694951      14.12807656      18.40918672
H       16.95394532      13.00695531      18.38269420
O       18.14190934      29.19591984      21.09979471
H       18.69847352      29.71565610      21.67974503
H       18.22103336      28.30091333      21.42984709
O       21.51671700      18.70835710      11.93471168
H       21.71884376      18.74947504      11.00000000
H       21.25830888      19.60107560      12.16386396
O       19.19447881      24.56326656      12.83456659
H       18.36316302      24.57416393      12.36019634
H       19.03934610      25.11210657      13.60329302
O       29.24071237      25.05422043      21.88668624
H       28.59400426      24.80737386      22.54779685
H       28.76459045      25.01122778      21.05741464
O       19.59228305      29.26372432      23.39984268
H       18.93080435      29.26380415      24.09170811
H       20.09487646      28.46275412      23.54843086
O       19.38231640      20.25320110      29.72163470
H       19.46701431      20.09159657      30.66128468
H       20.27775488      20.20084557      29.38744812
O       15.89404383      13.80904697      23.55677146
H       15.54767039      13.14745238      24.15556181
H       16.83520607      13.82107025      23.73084305
O       16.12250280      17.81201129      13.73785974
H       16.76560477      17.17497954      14.04905462
H       16.64718992      18.54483821      13.41552456
O       26.75527165      20.20516790      28.24142307
H       27.52102158      20.70749969      28.51985018
H       26.20674929      20.83968392      27.78018075
O       23.79985994      28.46226407      16.34573963
H       24.33995717      28.73247566      17.08837852
H       24.16441983      27.61859335      16.07825575
O       18.18263553      12.75412008      17.09123446
H       18.09958738      13.67753743      16.85325289
H       19.00034201      12.70654252      17.58653672
O       27.20403599      21.96383304      13.63632240
H       28.08666949      21.82381404      13.29341627
H       27.28096780      22.74386728      14.18574021
O       12.04660473      20.93968242      22.03861501
H       11.53059573      21.52945732      22.58828048
H       12.94691970      21.05444940      22.34274215
O       16.57091399      21.37234778      12.62293271
H       17.18763001      20.80993791      13.09153523
H       15.72866856      21.21177225      13.04845589
O       16.18129488      26.98479261      15.89007724
H       16.03175041      26.66027924      16.77808590
H       17.01109617      26.58744408      15.62592614
O       12.59047162      19.80030452      17.19247536
H       13.41142064      19.99553247      16.74063404
H       12.55321932      18.84422862      17.22009741
O       16.54868902      21.77603124      28.92161223
H       17.22356213      21.64802885      28.25498375
H       15.75639151      21.40225795      28.53587915
O       19.97770411      27.35452523      27.43235143
H       19.96837167      28.31090710      27.47080219
H       20.81076323      27.13932527      27.01290737
O       25.23562514      17.21715013      12.84028484
H       25.76484783      17.85336546      13.32131003
H       24.80896806      17.72998601      12.15384845
O       13.00745658      16.28581653      22.27250232
H       13.39590124      16.95823088      21.71285821
H       12.08546516      16.53376857      22.34093800
O       25.03229866      22.70207224      12.17448783
H       24.58905629      21.86451910      12.03931101
H       25.79700225      22.48555486      12.70794869
O       23.96418963      25.14662463      12.70524919
H       24.49986850      25.93692286      12.77386906
H       24.56447452      24.47765370      12.37605656
O       22.81556923      12.36391233      25.32044436
H       22.19100749      11.69867889      25.03127497
H       22.55874909      13.15574577      24.84792445
O       25.39634496      29.22504256      18.88024718
H       25.30903305      29.96260579      18.27641861
H       24.55051061      29.17831419      19.32590687
