391
Lattice="41.3015823980253 0.0 0.0 0.0 41.3015823980253 0.0 0.0 0.0 41.3015823980253" Properties=species:S:1:pos:R:3 charge=0 spin=4 spin_multiplicity=4 metal=Nd geometry=droplet boundary=pbc droplet_radius=9.7193 pbc="T T T"
Nd      20.31004985      20.86490037      20.37818503
O       22.52606164      20.82715287      19.59692523
H       23.33069463      21.17432970      19.99858429
O       18.62059788      19.76140724      19.17379517
H       17.67627444      19.69066986      19.35419877
O       19.78349003      22.00614101      22.36383469
H       20.25129881      22.72103121      22.81035787
O       20.44017300      21.35587106      17.94053949
H       21.04559326      20.98353241      17.29939827
H       19.89598714      21.95925471      17.43455356
O       21.00917131      18.57666449      19.68876084
H       20.46497185      17.79170272      19.62620037
H       21.88236906      18.28480950      19.42688644
O       18.28062471      22.28422669      20.11925182
H       17.85023474      22.81845749      20.78677992
H       17.75599121      22.41791408      19.32987282
O       18.84962302      19.50502012      21.86747317
H       18.70775563      19.61437150      22.80776448
H       18.30423082      18.75572517      21.62802324
O       21.35585438      23.12341323      20.45243175
H       22.28183749      23.34388589      20.35154109
H       20.92201451      23.96577001      20.58826203
O       21.92485269      20.34420665      22.20065309
H       21.77305823      20.37753758      23.14515260
H       22.83655427      20.06584341      22.11378550
O       18.70604503      23.31257654      24.49238448
H       17.76652615      23.47990762      24.41797734
H       19.08400084      24.16242759      24.71851375
O       16.95111613      20.21729002      23.68041060
H       16.51348108      19.36919513      23.60663761
H       17.60623419      20.09040063      24.36666949
O       16.09367394      20.41695696      19.93754249
H       15.22323585      20.78959593      20.07793322
H       16.69567765      21.07771908      20.27991188
O       16.66594318      24.44666258      19.78002533
H       16.26027993      24.51215306      18.91551382
H       16.09831397      24.96404495      20.35129094
O       22.35357873      17.98914948      23.49226825
H       22.30752967      18.55100040      24.26585397
H       21.83099949      18.44547040      22.83278816
O       19.74384211      17.26678660      23.23562398
H       19.81340402      17.88529236      22.50840763
H       18.96077037      17.54318673      23.71168432
O       18.54818485      24.73744455      16.99221478
H       18.81751784      25.02625642      16.12027482
H       18.79357541      25.45954592      17.57064794
O       18.14352642      16.64218742      19.72097481
H       18.34742054      17.51449309      19.38371846
H       17.83261916      16.15620997      18.95717220
O       19.95727549      22.38893233      15.47112774
H       19.40692139      22.09392333      14.74565417
H       19.45742027      23.09573257      15.87955157
O       20.00378688      19.67650280      25.09870636
H       19.21779787      19.44555070      25.59379649
H       20.12051831      18.95325649      24.48265411
O       21.46823192      24.38905016      23.68069755
H       20.78690493      24.99767820      23.96634993
H       21.80380874      24.76847224      22.86850365
O       16.97802295      18.62354450      17.32845781
H       16.41409334      18.16235802      17.94936219
H       17.70708014      18.02273697      17.17438717
O       26.59970996      17.28856307      16.92669364
H       27.54140253      17.24649386      17.09305812
H       26.29649632      18.03058768      17.44985021
O       19.69337318      17.09759298      16.85791500
H       19.73131587      18.03272065      17.05873440
H       19.53312455      17.06094878      15.91493598
O       16.29110425      21.87561003      17.12966439
H       15.55243359      21.69298438      17.71039270
H       16.70868085      21.02448321      16.99758581
O       23.70939745      16.95005028      18.71142919
H       23.69227176      16.63936094      19.61664226
H       24.20652542      17.76723544      18.74754071
O       23.74181894      25.13808099      20.18936953
H       24.36688947      25.80197435      19.89822646
H       23.00322120      25.63915459      20.53524590
O       24.32141089      19.82017601      24.20676523
H       23.97207366      19.22273809      23.54550638
H       24.85872949      19.26503074      24.77186194
O       25.63751414      19.86036980      18.80832784
H       26.16157820      20.09514555      19.57414051
H       24.76673829      20.21019873      18.99701006
O       16.14177546      27.64548525      19.07080237
H       16.21469493      28.09758667      19.91134916
H       16.26861236      26.72094104      19.28378649
O       21.60314079      24.49759982      15.96412758
H       20.73406740      24.77411966      16.25478211
H       22.20158649      25.13046584      16.36108499
O       21.62594697      26.61525443      21.21344033
H       21.07735822      25.84044777      21.09114214
H       21.01383908      27.35040074      21.18003837
O       20.05314866      22.12122152      26.53306647
H       20.16242573      21.28361991      26.08282886
H       19.92388643      22.75694400      25.82923408
O       22.62660131      17.00676990      16.21688807
H       23.15375244      17.18814971      16.99499147
H       21.72268990      17.01708910      16.53164119
O       23.68134202      15.79880920      21.17562417
H       24.14081822      15.19957827      21.76387220
H       23.02230160      16.21915402      21.72808033
O       14.82636614      18.26746377      21.48096361
H       14.01241202      18.04909934      21.02706109
H       15.19781073      18.98924865      20.97372862
O       19.41211593      26.97732316      19.01989307
H       18.46313280      27.03767278      18.91025375
H       19.60607963      27.55788559      19.75579876
O       22.02368820      14.76217784      19.20133047
H       22.57002184      15.06527981      19.92650671
H       22.59492723      14.18382749      18.69593095
O       15.77110547      21.54542230      26.75693426
H       16.56569430      21.12741018      27.08878709
H       15.28802017      20.83783308      26.33011120
O       20.86921687      17.17474008      25.73446901
H       20.13425651      17.58801262      26.18753733
H       20.56033700      17.05395474      24.83656257
O       24.61534061      22.92389411      15.92150916
H       23.76676305      23.02712537      15.49082218
H       25.22315284      22.72434888      15.20948540
O       14.07338201      20.58383756      18.03045957
H       13.19179301      20.21103774      18.02318142
H       14.54774533      20.09134084      17.36063999
O       13.38203135      24.77682573      20.77399472
H       14.07115256      25.28718729      21.19928858
H       13.46034378      23.90265369      21.15599244
O       18.71176950      14.27240056      20.92914989
H       18.90989529      14.44935889      21.84874968
H       18.62454340      15.13868750      20.53144350
O       24.98517483      19.93133199      15.46573741
H       24.12959380      19.53947680      15.64084436
H       24.84937193      20.87042115      15.59183646
O       15.46920317      24.46287553      16.95955898
H       16.32060644      24.85657313      16.76891137
H       15.66236861      23.53911529      17.11951511
O       23.45611460      26.27050266      17.27279066
H       23.48313007      25.94197882      18.17144192
H       23.67026561      27.20018915      17.35059952
O       13.34005325      21.37283886      20.52856583
H       12.76102970      21.35180398      21.29048519
H       13.15966675      20.55369867      20.06736965
O       22.83581966      22.36768666      26.77025328
H       21.88635125      22.27157773      26.69605995
H       23.07235296      21.83497430      27.52953016
O       26.62436894      24.12921451      20.11241754
H       25.72094540      24.44120460      20.16457055
H       26.65114419      23.60416865      19.31251643
O       26.64396920      22.02021669      17.49664285
H       26.31787035      21.22966199      17.92665988
H       25.89271154      22.35394351      17.00626527
O       19.41585922      25.76621671      25.42737494
H       19.43902005      26.72012531      25.35152113
H       20.14762859      25.55369900      26.00666903
O       22.22425850      15.25820766      24.23365984
H       22.20675904      16.18295917      23.98716389
H       21.33693837      14.94583609      24.05668857
O       19.17003740      14.63281624      23.59804417
H       19.37859059      15.56049572      23.48782537
H       19.48775349      14.41796322      24.47504274
O       15.97306485      15.20403100      20.87264909
H       16.70956477      15.63922339      20.44322239
H       15.37582449      15.91533545      21.10412645
O       16.80966973      15.15859845      17.87213957
H       16.00178691      15.65280659      18.01111980
H       16.94310183      15.17839983      16.92449215
O       18.90817599      25.09657516      21.79804156
H       19.29683173      24.23003289      21.91755332
H       18.13301694      24.93963612      21.25884733
O       16.62807734      25.37623081      24.65017710
H       17.54337011      25.49375383      24.90445906
H       16.23677441      24.89363315      25.37833462
O       20.23611030      14.38798630      17.16408448
H       20.14309494      15.32997643      17.02183618
H       21.05904998      14.16007274      16.73158300
O       16.64416544      21.60268651      14.18599323
H       15.78362305      21.73921882      13.78968834
H       16.49940232      21.72945751      15.12365233
O       19.07723939      20.83633333      13.24001355
H       18.88495552      20.27709131      12.48734688
H       18.21995528      21.13956869      13.53891839
O       21.18620840      18.58999188      13.55401678
H       21.58465652      18.66313946      14.42126552
H       20.53586970      19.29188356      13.52872854
O       25.88258715      17.44245781      23.56174130
H       26.23492150      18.32299894      23.69112319
H       25.03672876      17.58256770      23.13615388
O       27.56577222      20.93512521      21.20005335
H       28.21962705      21.60445037      21.40181939
H       28.02359896      20.31611803      20.63132088
O       13.93284493      22.45720192      23.71085900
H       14.13891735      23.24704026      23.21093760
H       13.08776312      22.16867256      23.36615712
O       21.63885379      21.74842488      13.17185099
H       21.19876327      20.97562453      12.81782869
H       21.20762882      21.90652840      14.01166058
O       26.30593257      16.50942933      20.82502601
H       26.13661814      16.87799005      21.69204819
H       27.25920724      16.43749174      20.77681591
O       14.62803760      18.80890835      15.97157517
H       15.51226014      18.81328244      16.33813105
H       14.65644256      18.14325525      15.28431180
O       21.68982577      24.82773349      26.58785975
H       21.84190790      24.67570478      25.65512713
H       22.53641249      25.12157180      26.92428479
O       24.64863493      26.25114298      23.33074020
H       25.10562363      26.74492205      22.64987648
H       24.19653499      26.91764762      23.84804963
O       15.76756754      26.58431475      22.29135009
H       15.80535486      27.51722883      22.50224170
H       16.04910283      26.14524100      23.09396081
O       19.17543833      16.83573023      14.08132826
H       18.75420808      16.74335595      13.22677346
H       19.88966954      17.45504237      13.93113480
O       14.24814306      17.81627657      24.11280423
H       15.08506432      17.62065675      24.53414439
H       14.47689425      18.01233829      23.20425344
O       18.49137650      20.08047521      28.00598195
H       18.96006242      20.77758966      27.54707369
H       17.94041772      20.53898679      28.64036622
O       16.45215835      14.69592167      23.51114552
H       16.35670371      14.76627295      22.56131872
H       17.39065613      14.56787495      23.64919546
O       19.74650895      28.76700441      21.04069088
H       19.06748847      29.31397350      21.43564383
H       20.14780851      29.32578440      20.37514192
O       17.85196291      16.37129902      26.55187215
H       17.15274368      16.18894745      25.92412044
H       18.65916248      16.27666489      26.04619926
O       24.82158820      22.60149335      22.08268745
H       24.55188705      21.81235675      21.61284007
H       25.41557101      23.04857347      21.47974830
O       19.74542318      23.77015108      12.83886012
H       20.66945882      23.81115155      13.08525196
H       19.54846063      22.83420218      12.80094901
O       24.37914220      14.12224208      18.00102993
H       25.28522756      13.99232051      17.72109860
H       24.34179181      15.03848542      18.27550204
O       17.41171155      15.10632290      15.22010753
H       16.70748738      15.35281613      14.62048994
H       18.06320347      15.80092874      15.12360442
O       23.58532408      28.49157034      19.86510712
H       24.43764364      28.21901525      20.20495552
H       22.95091661      27.99489986      20.38190246
O       25.65678212      23.64839705      25.23027666
H       26.23389484      24.05848731      24.58607271
H       26.24271317      23.12989304      25.78170230
O       22.18597683      24.89256822      13.33682818
H       22.00059411      24.78109480      14.26926518
H       22.86878697      25.56269681      13.30633494
O       27.12943553      19.39152930      24.99173761
H       26.74571918      20.13549247      24.52750446
H       27.33633116      19.73245397      25.86190794
O       18.27789381      23.24927467      28.25801487
H       18.89557479      22.84113496      27.65128261
H       17.97502437      22.52995657      28.81216595
O       24.83226714      15.58527463      25.25088150
H       25.21256804      16.27933124      24.71246857
H       23.93748093      15.49115343      24.92418488
O       12.86746660      23.22977681      16.79930041
H       13.15831592      22.35719903      17.06434104
H       13.66349701      23.76126236      16.80881526
O       24.93205388      13.98572295      22.77150576
H       24.98481095      14.48626840      23.58569418
H       25.22861198      13.10745082      23.01009161
O       27.52821523      24.98583525      22.88032395
H       26.92555586      25.61106364      23.28296894
H       27.21614964      24.89760005      21.97973445
O       16.81335825      12.96709251      19.48325414
H       16.71835625      13.78439216      18.99414501
H       17.58906410      13.10196001      20.02760976
O       17.12779411      27.33813380      15.39809458
H       16.20024197      27.33955538      15.16171176
H       17.55918917      26.88384209      14.67438941
O       27.63201523      20.55841419      15.42599173
H       26.80776308      20.07834673      15.34614529
H       27.51605957      21.10697811      16.20179051
O       29.01529962      21.85968648      19.08974277
H       28.16648037      22.07895593      18.70547903
H       29.13253520      22.49834995      19.79301841
O       20.45577080      12.25990510      22.52247968
H       20.82650835      12.38501373      21.64890464
H       20.04603827      13.09928055      22.73176408
O       20.09189597      14.28427704      14.40909846
H       20.97136656      14.31186002      14.78593066
H       19.76820355      15.18150971      14.48927701
O       22.41835210      13.62442347      15.65433606
H       23.01560462      13.76806820      16.38842560
H       22.15623759      12.70727536      15.73413053
O       11.70441600      21.23236907      22.74530763
H       12.22560074      20.46298056      22.97474093
H       11.00000000      21.24698088      23.39324006
O       26.23635838      22.27101351      13.83716094
H       26.86627091      21.80340008      14.38559483
H       26.74864086      22.57232423      13.08682079
O       18.25940326      25.99699094      13.31982690
H       17.42996789      25.83282005      12.87114359
H       18.77608056      25.20601619      13.16608898
O       29.05157366      18.81478519      19.95186654
H       29.69297352      19.22226982      20.53392696
H       29.23861589      19.18740144      19.09023775
O       14.42604741      18.36652774      26.77729186
H       15.33153592      18.58030911      26.55230316
H       13.95986684      18.38696695      25.94153486
O       22.18925364      14.95760378      26.93677138
H       21.76091456      15.68212760      26.48089562
H       22.15303507      14.22911466      26.31691361
O       12.15868049      18.71632405      17.10828595
H       13.02923945      18.67679710      16.71231049
H       11.68761992      19.36705388      16.58782033
O       14.44582967      24.34467960      14.44219202
H       14.83419280      24.39250804      15.31575848
H       13.54620467      24.05562002      14.59500317
O       20.55498302      29.46515145      17.57035145
H       20.31030227      28.64660345      18.00202534
H       20.28479577      29.34635651      16.65979203
O       13.02070803      16.07164737      17.96830099
H       12.73985563      16.94494450      17.69497721
H       13.57103059      16.22590545      18.73614300
O       26.20317642      20.58213117      27.25512252
H       25.66840518      20.77222133      28.02591256
H       25.57113365      20.33974200      26.57836461
O       15.97138955      18.72278485      12.66668584
H       16.64512535      18.52293384      12.01678471
H       16.24558282      19.55688491      13.04790359
O       22.50803427      27.41217367      26.35754586
H       22.18522396      28.22519688      25.96893473
H       21.82680811      26.76759822      26.16601193
O       23.05455750      17.82769777      28.62228582
H       22.61196368      18.52859138      28.14365161
H       22.81218534      17.02803495      28.15535225
O       26.86077696      27.03350868      18.48546365
H       27.05747854      27.20513895      17.56454923
H       26.86680963      26.07910474      18.55832361
O       26.05510369      28.03108010      20.90747845
H       26.34657933      28.94269224      20.89208037
H       26.34471793      27.67232255      20.06864089
O       13.30932598      14.97211914      21.37176946
H       14.09526482      14.44765121      21.21858533
H       13.14715187      14.89254106      22.31176878
O       28.35399340      16.80288925      22.62169215
H       28.90006513      16.34266399      23.25905406
H       27.52747426      16.95562488      23.07969845
O       29.10734146      19.93472430      23.20533694
H       28.97232886      20.87054644      23.35446897
H       28.35520158      19.51431208      23.62219544
O       26.82645334      14.26044823      19.18596289
H       26.49905463      14.96403183      19.74633066
H       27.07027801      13.56285654      19.79436013
O       23.81961097      28.96500135      17.19565755
H       22.94861171      29.24965704      16.91895686
H       23.79175793      29.00213583      18.15173133
O       20.91806791      11.83643095      17.81439142
H       21.21719505      11.85369307      18.72348813
H       20.40217113      12.63671367      17.71625929
O       21.67755433      12.68245802      24.91563822
H       21.23993359      12.40313435      24.11146273
H       22.61113037      12.59164412      24.72479678
O       28.90415554      22.80958760      23.94566176
H       29.52099234      23.12415090      24.60656578
H       28.40154562      23.58559982      23.69783087
O       13.06687776      20.16587468      14.20528018
H       12.52557703      20.79253959      14.68540147
H       13.61732346      19.76114260      14.87567806
O       29.47859256      23.32091490      21.33664534
H       28.81846229      23.85623673      21.77697523
H       30.30158240      23.55267374      21.76700264
O       15.62618980      16.14023657      13.44768421
H       15.73667624      17.05859872      13.20144135
H       15.51991188      15.67970022      12.61531223
O       16.84011915      28.59201173      24.92177962
H       16.77730814      27.64116007      24.83140404
H       16.10230773      28.82893211      25.48368253
O       25.00916208      12.46460529      20.11912986
H       24.94199234      13.23508498      19.55514307
H       25.06287647      12.82041204      21.00611812
O       29.42738130      19.74850689      17.42494501
H       29.18042121      19.89289177      16.51149246
H       29.44203481      20.62432409      17.81090013
O       18.25824248      17.67483150      29.28479769
H       18.23051187      18.57651328      28.96474640
H       18.10710595      17.13903490      28.50613757
O       22.47011695      15.52796128      12.57886912
H       21.80094886      15.10588981      13.11766554
H       22.16623375      16.43046978      12.48209489
O       26.60902324      26.65233397      15.80341652
H       25.75013145      26.58129523      16.21993810
H       27.00752781      25.79080955      15.92671130
O       28.75640900      16.13725399      19.57489898
H       29.66475009      15.83681690      19.54513559
H       28.82089202      17.08589754      19.68512240
O       19.60335670      28.80774508      14.82153590
H       18.80881417      28.33069455      15.06102871
H       20.14570419      28.16003451      14.37146694
