391
Properties=species:S:1:pos:R:3 charge=0 spin=6 spin_multiplicity=6 metal=Dy geometry=droplet boundary=non-pbc droplet_radius=9.7526 pbc="F F F"
Dy       0.00000000       0.00000000       0.00000000
O        1.05419568      -0.95036466      -1.71999374
H        0.83643144      -1.74753245      -2.21637893
O       -2.14730108       0.55124217      -0.24110193
H       -2.78399390       0.86342928       0.41193518
O        2.04350538       0.89272613       0.00508051
H        2.80215429       0.70078621       0.56802536
O       -1.12953892      -2.05185443      -0.36184971
H       -1.75947613      -2.48357201       0.21523858
H       -1.05806318      -2.63460533      -1.11784207
O       -0.03219193       1.62767493      -1.72236408
H        0.41348750       1.59389101      -2.56880388
H       -0.49378754       2.46620643      -1.72748764
O        1.39585570      -1.65304844       0.96742840
H        1.28440244      -2.09434062       1.80949207
H        2.19744154      -2.02904891       0.60367625
O       -1.01006635      -0.52459221       2.07881432
H       -0.72390078      -0.25910313       2.95280325
H       -1.79562430      -1.04944777       2.23262325
O       -0.23412485       2.07722795       1.11678538
H        0.04603723       2.29997262       2.00454992
H       -0.63004186       2.88149682       0.78117677
O       -2.94433096       1.32935767       2.54773888
H       -2.84700949       2.25443252       2.32191396
H       -2.11849908       0.92809811       2.27713898
O       -2.44347056       6.59109228      -3.51138147
H       -2.26186181       5.93700910      -2.83652942
H       -1.71882935       7.21286865      -3.44414224
O        3.72359117       0.76769287      -2.13035351
H        3.13406986       0.72240171      -2.88311189
H        3.14247911       0.76210932      -1.36975543
O        0.30434754       0.54604580       4.28400279
H       -0.24166732       0.98121387       4.93877631
H        1.07934862       1.10285544       4.20938245
O        3.56612055      -2.60853263      -0.37949295
H        3.75855411      -1.68986253      -0.56723321
H        4.34674601      -3.08115101      -0.66843517
O        1.83979648       0.02264905      -4.13545902
H        1.20521255      -0.28971191      -4.78041305
H        1.47649865      -0.24612937      -3.29165531
O       -0.20055361      -3.34985218      -3.35228881
H        0.40456169      -3.69683911      -2.69679863
H       -0.96663107      -3.92117174      -3.29796456
O        1.80389767      -4.19076281      -1.71722171
H        1.21785024      -4.40161832      -0.99036532
H        2.47407387      -3.62785896      -1.32962017
O        2.56934845       2.72123285      -3.63189870
H        1.84495212       3.23633437      -3.98707785
H        3.12022206       2.52707680      -4.39023473
O       -2.34913130      -2.56864466       4.34334354
H       -2.42040463      -3.29166884       3.72013572
H       -1.41834298      -2.53264194       4.56372674
O       -5.20588736      -0.97554835       1.53134522
H       -4.56611661      -0.89673404       2.23895636
H       -5.18128298      -1.90084723       1.28752469
O        2.86033728      -4.47124842       1.57469862
H        2.86664919      -3.84442902       0.85131115
H        2.12626172      -5.05413605       1.38077359
O        2.85530855      -1.38794839       4.55070237
H        3.68616156      -0.97174898       4.78025226
H        2.21782732      -0.67401501       4.56289490
O        0.25086455      -2.22268299       5.08127412
H        1.16825872      -2.45777444       5.22038482
H        0.27021479      -1.28593517       4.88541465
O       -4.25817776       3.16042711      -2.47371465
H       -4.34628582       2.20870177      -2.52555751
H       -5.12794314       3.49428427      -2.69344044
O       -3.31204478      -4.58797459       0.35139706
H       -2.94044650      -4.20665221       1.14684649
H       -2.67571900      -4.38203924      -0.33337441
O        5.59816322       0.97599155       0.04731849
H        5.93560548       1.87116693       0.01529365
H        5.06343288       0.89270092      -0.74221174
O        0.53307311      -4.63382448       3.42913813
H        0.45808108      -3.87534225       4.00820008
H        0.37985508      -4.28227437       2.55211556
O        0.83239432       5.63104821      -0.41742809
H        0.03537061       5.12457977      -0.57387221
H        1.49461009       4.97515997      -0.19945395
O       -1.72336316       0.37216520      -3.89525914
H       -1.14278181      -0.30415125      -4.24419065
H       -1.26842110       0.70273395      -3.12067289
O        1.11235335       4.93380196       3.05130892
H        1.65247245       4.19406180       3.32931557
H        1.08185833       5.50929693       3.81557814
O       -0.31659566      -1.69739901      -5.69699965
H        0.41105803      -1.74873440      -6.31677108
H       -0.10272790      -2.34141244      -5.02191512
O        4.40358979      -1.55251831      -3.69613654
H        5.13722925      -0.94608993      -3.79737678
H        3.62650591      -0.99383372      -3.71175734
O        0.46653616      -5.91298524       1.02961287
H        1.08760428      -6.59004376       0.76110218
H       -0.38768651      -6.25032204       0.75991054
O       -2.67604696       4.70252901       2.82123750
H       -1.91679461       4.29264801       3.23568325
H       -3.41620873       4.44998233       3.37315466
O        0.42877151       3.94553078      -4.77976149
H       -0.27001381       3.40894581      -4.40558573
H        0.47138295       3.67796101      -5.69781515
O        5.40504489       1.73367669       2.74822848
H        5.44444082       0.90221425       3.22082770
H        5.38108558       1.48379543       1.82453094
O       -4.98090179      -3.73736778      -1.62089400
H       -4.15408949      -3.46609154      -1.22211778
H       -5.20562774      -4.55419733      -1.17533864
O       -4.48511686      -0.25358899      -2.73971453
H       -3.59050717      -0.05948632      -3.01940988
H       -4.96304934      -0.40836016      -3.55448952
O        6.03406103      -2.32459773       0.73070088
H        5.87791955      -1.40730220       0.50615557
H        6.20842028      -2.31496427       1.67183737
O        5.85513903       2.45031993      -2.28420366
H        5.70504606       3.03272753      -1.53955251
H        5.04196467       1.95220041      -2.36700608
O       -1.56806919       2.18571270      -6.29693406
H       -1.55939309       1.46636153      -5.66551466
H       -0.65364612       2.28278779      -6.56271351
O        4.02665624       0.77586327      -5.56679082
H        4.73532251       0.61826872      -4.94294156
H        3.23351254       0.51103315      -5.10093686
O       -3.29100186      -2.11073118      -5.76329754
H       -3.63036886      -1.63907974      -5.00263546
H       -2.34216450      -1.99447902      -5.71405381
O       -1.74886349       4.08673978      -1.00401817
H       -1.91446960       4.99232644      -0.74187460
H       -2.57452834       3.79368227      -1.38953948
O       -5.80268194      -3.67800773       1.25663774
H       -6.35306434      -3.90558445       0.50729143
H       -4.93351875      -4.00460203       1.02399350
O        0.35737215       1.33327134       6.88705183
H        1.14725510       1.13572700       6.38376962
H        0.00428670       0.47619074       7.12574694
O       -2.12254957       6.63946688       0.90043946
H       -2.37826299       5.88421144       1.42999749
H       -1.40780268       7.04549103       1.39086082
O       -3.27322861      -0.88002677       6.26508073
H       -2.44135150      -0.80560350       6.73270610
H       -3.05721534      -1.36084259       5.46608995
O       -6.26071262       2.08657613       2.71203780
H       -5.70071355       2.77166032       2.34694530
H       -6.55262717       1.58442357       1.95120895
O       -3.66804247      -4.42839118      -4.29999097
H       -4.09774562      -4.23124465      -3.46769277
H       -3.41467306      -3.57333507      -4.64771907
O        1.00397300      -6.22406948      -3.45542632
H        0.06443028      -6.31045052      -3.29408930
H        1.24071339      -5.38838260      -3.05316614
O        2.75975136       2.40998233       4.15050668
H        3.58387950       2.30832611       3.67436523
H        3.00595285       2.84688565       4.96581775
O        6.01402794      -3.97042429      -1.43476796
H        6.24479180      -3.44442042      -0.66906580
H        6.06556777      -4.87579139      -1.12835990
O        5.93162625       4.34476922      -0.06071591
H        5.47531215       5.10985613       0.28950017
H        6.48524807       4.04472067       0.66019017
O        1.82630074      -0.79940615      -7.11121456
H        2.54716754      -0.55212689      -7.69038282
H        1.21402570      -0.06548685      -7.16330646
O       -1.89341783      -7.14409362       0.46980043
H       -2.35651976      -6.31013855       0.39050735
H       -2.45535466      -7.77444624       0.01911826
O        3.85830430       5.88061684       2.51145918
H        2.96534254       5.57825263       2.67707025
H        4.11892853       5.43052480       1.70788964
O        3.14193709      -6.55718733      -1.80723253
H        2.70522516      -5.70609527      -1.77322019
H        4.07278086      -6.35305516      -1.71727830
O        3.40503841       5.65641129      -3.55883303
H        3.28246583       4.70747701      -3.53178603
H        2.71024147       5.97176147      -4.13679782
O       -0.63095071      -1.13482144       7.46162640
H       -0.25295640      -1.54660644       8.23866260
H       -0.28135757      -1.64051619       6.72794438
O       -4.88723416       3.92905550       4.41403719
H       -4.56110955       3.03461469       4.51328544
H       -4.56120118       4.39049317       5.18670116
O        5.71174401      -0.41221129       5.19480819
H        5.62334293      -1.32176785       5.47963087
H        5.48856379       0.10448654       5.96904703
O       -3.91381398      -6.29720869       2.78209848
H       -3.70741633      -5.79819991       1.99176812
H       -3.12426823      -6.80992371       2.95522462
O        2.68890210      -6.34657055       3.62604154
H        2.88135467      -6.77698926       2.79301478
H        1.90396666      -5.82711099       3.45205889
O       -3.72038196       2.47508008       6.39464604
H       -3.50896754       3.40440081       6.48352098
H       -4.58404094       2.38583529       6.79758571
O       -4.59600445       6.35069899      -0.19365105
H       -4.91577296       7.23171138      -0.38806579
H       -3.70455320       6.48455338       0.12826431
O        0.41481352       4.04686406       6.70952706
H        0.34473269       3.09286798       6.74434063
H        0.21967429       4.33453794       7.60137697
O       -1.62996119      -6.62550465      -4.00282075
H       -1.92661935      -6.53224530      -4.90809887
H       -1.43191230      -7.55737746      -3.90996852
O       -0.12636307       7.50799247       2.58168088
H        0.36198559       8.05439786       1.96589799
H        0.22111163       6.62618794       2.44783795
O        6.80714413      -0.35114189      -4.21709544
H        6.55840290       0.39583867      -3.67268780
H        7.67313207      -0.60366413      -3.89689354
O        3.36111397      -7.23879324       0.82283757
H        2.87602502      -8.04944648       0.97698644
H        3.26756390      -7.07798682      -0.11610946
O       -7.94733914       0.72880044       1.06573886
H       -7.48857767      -0.08750218       1.26428301
H       -8.60627444       0.80766375       1.75553354
O       -6.96006710      -0.20875444       4.16410075
H       -6.44721202      -0.18849269       4.97206174
H       -6.69624034       0.58132591       3.69250736
O        5.24415886      -4.90348389       3.85936597
H        4.39005097      -5.33326507       3.81442499
H        5.83389196      -5.57650643       4.19920030
O        0.61173528       3.35578114      -7.42931089
H        0.49624567       3.05580585      -8.33092545
H        1.54370484       3.22885393      -7.25167625
O       -5.48700757      -6.11327208      -0.23329444
H       -5.37222855      -6.65356519       0.54846061
H       -4.96328676      -6.54936731      -0.90543230
O       -7.69778948      -1.91358732       2.08959124
H       -7.37200462      -1.31542887       2.76212564
H       -6.94536464      -2.46436020       1.87340167
O       -1.29536716      -3.75954661       7.20130242
H       -2.24969131      -3.70954360       7.25604702
H       -1.11632986      -3.92275034       6.27526677
O        3.43445866       3.11129733      -6.82910989
H        4.17410524       3.67663679      -6.60652045
H        3.60853266       2.29364838      -6.36286931
O        5.92217797       5.14266097      -2.66526206
H        5.02952087       5.45602683      -2.81085390
H        5.97966686       5.01318923      -1.71860271
O        8.13327319       1.90365744      -0.28595333
H        7.56294012       2.05032472      -1.04056630
H        8.55975818       1.06599438      -0.46668240
O        2.66212893      -4.61752525      -6.43908825
H        1.86525470      -4.12026944      -6.62337052
H        2.35348224      -5.50311395      -6.24751135
O       -3.83897424       3.69955779      -6.45509167
H       -3.05494562       3.15164017      -6.41879781
H       -3.50615545       4.59669129      -6.43029322
O        4.21243954       0.60741182       7.22233255
H        3.72587636      -0.12549788       6.84506411
H        3.54525690       1.14249333       7.65220107
O        5.08503092      -4.26675370      -5.14828596
H        4.20745950      -4.50760471      -5.44508728
H        4.96585798      -3.42813115      -4.70248122
O       -3.92364645      -3.66405463       6.50742028
H       -3.44713300      -3.32357870       5.75029221
H       -4.35195738      -2.89650090       6.88642274
O       -4.94064805       6.20560962       2.92647263
H       -5.13392487       5.43317985       3.45772415
H       -4.80065381       5.86130101       2.04438135
O       -6.07748188      -3.98349669       4.32723325
H       -5.89654126      -3.81790324       3.40199213
H       -5.25162519      -3.79137839       4.77139889
O        7.81617158      -0.01863845       3.26226141
H        7.08897974      -0.24106836       3.84359505
H        7.40347945       0.42203954       2.51948288
O       -7.26105990      -3.22746461      -3.01349462
H       -7.34455047      -2.27505305      -2.96687491
H       -6.47443690      -3.42459303      -2.50497078
O        1.65646266       6.25308020      -5.55504670
H        1.94654478       6.00248404      -6.43213607
H        1.17890703       5.48871101      -5.23269255
O        2.84635322      -2.97694049       7.58032525
H        3.67597004      -3.12008544       7.12482850
H        2.74652185      -2.02524862       7.60373724
O        7.73354047       3.39853922       1.95099598
H        6.98010187       2.90956689       2.28185572
H        8.18968417       2.77964910       1.38078568
O        3.39470286       3.99106859       6.94407825
H        2.43768220       4.00579742       6.93283768
H        3.61960875       3.06348837       7.01649448
O       -4.24356214      -7.22905975      -2.37974811
H       -3.36050745      -7.24701969      -2.74869757
H       -4.79318236      -6.89539990      -3.08884652
O        0.34092539       6.99130096       5.21503297
H        0.15225982       7.23661532       4.30924160
H       -0.44985048       6.54058995       5.51128447
O       -2.68547812       7.00563929       4.52762717
H       -1.94385365       7.18990563       3.95119774
H       -3.39309678       6.75250304       3.93481211
O       -7.04450280       0.28704432      -5.25620902
H       -6.18116301       0.69330108      -5.17984347
H       -6.86110088      -0.62879085      -5.46559268
O       -8.28426905       2.22903474      -1.99452382
H       -8.18126897       1.79254276      -1.14888939
H       -7.49858424       1.98900826      -2.48576563
O        0.11025279      -8.53518972       2.28029013
H        0.97152889      -8.29432889       1.93908434
H       -0.50971196      -8.14362325       1.66502494
O        5.47318426      -3.36443739       6.09144819
H        5.39047069      -3.98638588       6.81433850
H        5.41144588      -3.90345795       5.30285638
O       -1.09300139       8.79849817      -0.39455644
H       -1.15669065       7.84473072      -0.44458808
H       -0.15274239       8.97727372      -0.40812680
O       -5.96922074      -0.82399926       6.62135605
H       -5.02169799      -0.88421780       6.49967530
H       -6.10090835      -0.97325597       7.55763200
O       -4.30162050       0.94281828      -7.81836304
H       -3.93365174       0.32399571      -7.18757824
H       -4.19044538       1.79978268      -7.40667876
O        5.99016010      -6.60034820       1.10373799
H        5.04635704      -6.67810739       0.96437827
H        6.17641277      -5.67072917       0.97201768
O        4.69995415       7.65764107      -0.32447815
H        5.49266356       8.11393081      -0.04226669
H        4.41707590       7.16798086       0.44782012
O       -2.60730720      -5.76586547      -6.42743627
H       -1.82615291      -5.22287271      -6.53321282
H       -3.14237332      -5.29474250      -5.78870375
O        1.34404768      -5.64787300       6.90498326
H        1.93614812      -6.37441967       7.09935109
H        1.83341610      -4.86515426       7.15816652
O       -0.95311521      -7.75484245       4.65909420
H       -0.44451674      -7.00138975       4.95887491
H       -0.56347548      -7.98740962       3.81628625
O        6.51512609       5.58567195       3.01415958
H        5.83546555       6.01501633       2.49458591
H        6.78520615       4.83613228       2.48361373
O       -7.10595709       5.61614887      -0.94129660
H       -6.18859253       5.81143163      -0.75014549
H       -7.49045099       5.41166764      -0.08889780
O        7.82598619      -4.60045038       0.93476383
H        8.53123939      -4.41726623       1.55548384
H        7.26579565      -3.82520619       0.97237817
O        5.45003969       4.92865791       5.42917997
H        5.35708342       5.75153280       5.90925067
H        5.85583995       5.17947588       4.59933159
O       -9.05382259      -1.26044070      -0.42322522
H       -9.09031949      -2.11841642      -0.84604608
H       -8.61786501      -1.42344334       0.41319750
O        4.30184105      -0.21854873      -8.08349849
H        4.30667272       0.19282590      -7.21921879
H        3.93938959       0.44958182      -8.66527366
O        3.06609109       6.50889213       5.69094297
H        2.13354758       6.72260574       5.66059579
H        3.09724804       5.62031121       6.04546383
O        7.57402760       2.25947326       4.73036264
H        6.81448721       2.42141384       4.17080436
H        7.94488288       1.44096043       4.40061281
O       -3.63373856       5.41320864       6.51844814
H       -3.29337153       5.97336451       5.82087555
H       -4.25218653       5.96916769       6.99243493
O       -6.49396437      -2.76070031      -5.93462528
H       -6.67083888      -2.83989544      -4.99724842
H       -5.63217663      -2.34681741      -5.98210881
O        2.20045796       2.30798807       8.71591884
H        1.64829489       2.63387935       9.42665272
H        1.58270708       1.96682316       8.06921783
O       -7.49396521       3.28995931       4.85552253
H       -7.40503834       2.73634868       4.07973961
H       -6.65530952       3.74655348       4.92193208
O       -2.19216960       2.74608222       8.85824965
H       -2.70308437       2.60891435       8.06051354
H       -2.28146793       1.92634873       9.34435112
O       -3.09307144      -0.85460727       8.98527736
H       -3.47798107      -1.72771506       9.06116681
H       -2.21210688      -1.00950079       8.64448227
O        1.49413578      -7.52926998      -5.79093433
H        1.37386694      -6.98836333      -5.01042985
H        1.05794970      -7.04218758      -6.49002251
O        0.73370617      -1.67273654      -9.44401336
H        0.76422791      -2.62445903      -9.54160723
H        1.08478196      -1.50988424      -8.56853820
O        1.75361451       9.47759357      -0.54256756
H        2.53770709       8.94039663      -0.42920918
H        2.05618405      10.37550174      -0.40675725
O        1.55455634      -8.97631004      -3.31794057
H        2.46168866      -9.01149160      -3.62142872
H        1.35377096      -8.04165890      -3.26952234
O       -4.07288947      -6.50605158       5.95013137
H       -3.92952162      -5.59791918       6.21653903
H       -4.03138191      -6.48508799       4.99406155
O        0.15197947       0.97448874      -9.67251887
H       -0.62375954       0.98888301     -10.23310216
H        0.38861297       0.04884977      -9.61396196
O       -3.70778511      -8.98730337      -0.37461989
H       -3.52662145      -9.84241283      -0.76474729
H       -3.90746214      -8.42091172      -1.11997982
O       -7.96892129       5.34781046       1.63478506
H       -7.10347097       5.53223535       1.99977142
H       -8.52703062       5.20750785       2.39967787
O        7.42060599       2.41155827      -5.85086506
H        7.24282359       1.59744655      -5.37985831
H        7.52023948       2.14347455      -6.76433982
