391
Properties=species:S:1:pos:R:3 charge=0 spin=4 spin_multiplicity=4 metal=Er geometry=droplet boundary=non-pbc droplet_radius=9.7941 pbc="F F F"
Er       0.00000000       0.00000000       0.00000000
O        1.79675125      -1.26165994      -0.14106425
H        1.88724516      -2.18338194      -0.40852532
O       -0.55292611       1.23685458      -1.73333882
H       -0.50449946       2.19209294      -1.85363231
O        0.95103012       0.13245008       1.97939352
H        0.74968507       0.70760708       2.72635443
O       -0.45494454      -1.52252376      -1.71771559
H       -0.61260718      -1.33249976      -2.64252109
H       -0.52509722      -2.47495776      -1.65306319
O        1.77792219       1.49613987      -0.27596768
H        2.23185231       1.72336576      -1.08747719
H        2.21429387       2.01811214       0.39734989
O       -0.56732499      -1.99363881       1.08588520
H       -0.85706461      -2.10571745       1.99126974
H       -0.56167567      -2.87988294       0.72426210
O       -2.33452787      -0.11449483      -0.11167165
H       -2.90666161       0.24066295      -0.79193467
H       -2.93141849      -0.52698636       0.51267134
O       -0.75565267       2.02002270       0.90779808
H       -0.54287665       2.39406157       1.76281453
H       -1.34682484       2.65751845       0.50736522
O       -1.39393741      -1.01291490       3.63737947
H       -2.14621535      -0.85584901       3.06673067
H       -0.66601044      -0.56873319       3.20257289
O       -2.20765606       4.07575716      -0.12370826
H       -2.56624659       4.96066107      -0.05596058
H       -2.32827179       3.83766202      -1.04294402
O       -4.23173405      -1.25699178      -1.69070434
H       -4.97058211      -1.13298721      -1.09492061
H       -3.92257969      -2.14431730      -1.50819723
O       -0.89854916      -3.89192443      -2.97769789
H       -0.12665302      -4.45035813      -3.07021817
H       -1.52255988      -4.23734160      -3.61607822
O        3.91289599      -2.96399646       0.00854131
H        3.53457772      -3.70463025      -0.46534550
H        4.82019038      -3.22170643       0.17174150
O        0.43459085       1.74368841       4.35790492
H       -0.20130172       2.38320160       4.67867798
H        0.39240146       1.02571248       4.98953967
O       -4.23364813      -1.36515897       1.79427984
H       -4.03064355      -2.02216851       1.12842742
H       -4.70503325      -0.68036035       1.31985517
O       -0.77056682       4.15229625       2.59646236
H       -1.43503608       4.21524891       1.91035056
H       -1.25240587       3.86324333       3.37138905
O       -1.52339855      -4.76275467      -0.47777416
H       -1.09739069      -4.59049522      -1.31746209
H       -0.84769159      -5.18613142       0.05175778
O       -1.18738830       3.01011661      -3.87029139
H       -1.45534501       3.48985402      -3.08652928
H       -1.03383892       3.68957975      -4.52678531
O        0.07481630       4.77152899      -1.80617552
H       -0.48926607       4.53387325      -1.07026611
H        0.29644062       3.93642449      -2.21814031
O        3.96967640       1.51527425       3.19960076
H        3.66796198       0.70132002       2.79626621
H        3.65956195       2.20387734       2.61147947
O       -3.76418274       1.55560683       3.51237287
H       -4.68224405       1.30390548       3.61258116
H       -3.27968257       0.73431242       3.59584090
O        3.54044027       0.29796000      -4.14278795
H        2.83795082       0.87868223      -4.43519537
H        3.19680185      -0.11418970      -3.35014862
O        1.86485359      -5.00557417      -1.32760052
H        1.35546310      -5.78085508      -1.56359348
H        2.57744256      -4.98305440      -1.96630363
O       -3.78637692      -3.93878596      -1.78034140
H       -2.85957967      -3.82173043      -1.57159106
H       -3.98215767      -4.83551609      -1.50872252
O        4.01973726       3.77159514       1.31729693
H        4.69687532       3.09912311       1.24315344
H        4.33720538       4.35706330       2.00480901
O        1.13570786       2.21210430      -5.10101098
H        0.20384941       2.23218100      -4.88313808
H        1.20676335       2.73495897      -5.89963852
O       -4.50814475       3.36434891       1.14121606
H       -4.16718870       2.87158304       1.88764932
H       -3.75129858       3.48578450       0.56791937
O       -5.72699357       1.10161968       0.25079207
H       -5.26847901       1.88127686       0.56405061
H       -5.06808242       0.62068142      -0.24997367
O       -2.92876386      -3.82978433       3.36494964
H       -3.29656191      -3.04909996       2.95083812
H       -2.85081808      -3.59660299       4.29003491
O        5.59716555       1.54903175       1.00714005
H        5.29684271       1.33742090       1.89102855
H        5.91827493       0.71789833       0.65737179
O       -1.67857654      -0.33650083      -5.65288009
H       -2.45051805      -0.51878877      -5.11705432
H       -1.99832529      -0.37220513      -6.55438871
O        1.58349075       4.20169489       3.95821591
H        0.83134865       4.37948654       3.39349985
H        1.59193918       3.24932750       4.05390713
O       -1.80897943       7.60553135       1.61918764
H       -1.12354297       7.48790079       0.96148576
H       -1.38439981       7.38985058       2.44951636
O        2.63505796       7.23085693       1.66580764
H        2.96200781       6.33287954       1.61128935
H        2.06144199       7.32399850       0.90520182
O       -4.90970091       2.75169309      -2.62568247
H       -4.43763111       1.93193443      -2.77189356
H       -5.80311497       2.47993710      -2.41546389
O        2.72341917       5.06421046      -2.35173981
H        1.80198718       5.15692951      -2.10966937
H        2.70354982       4.73950812      -3.25196503
O        6.24302192      -0.64513764      -0.50024074
H        5.38793517      -0.65549693      -0.93030022
H        6.12072634      -1.17162586       0.28975027
O       -0.43605679      -2.75611646      -5.64810080
H       -0.45525545      -3.02910411      -4.73085438
H       -1.06994758      -2.04068993      -5.69888650
O        2.85292757       0.93767882       5.61190840
H        3.07634144       1.22447453       4.72643322
H        3.68365512       0.64379915       5.98575104
O       -2.30480803       3.38768317       4.90057233
H       -2.74933884       2.67736973       4.43788559
H       -3.01356214       3.90969325       5.27661081
O        5.79523706      -1.73138519       2.11583362
H        6.56058272      -2.30620832       2.12333181
H        6.03874348      -1.00013662       2.68347081
O        0.38945111      -0.13306877       6.47363626
H        1.30789075       0.13456580       6.44089175
H        0.30369145      -0.78248000       5.77568055
O       -4.30583659      -0.14471984      -4.97529154
H       -4.58669989       0.62725837      -4.48396956
H       -4.65089626      -0.00643985      -5.85735974
O       -2.61857293      -2.32635772       5.68030891
H       -3.50321300      -2.00976755       5.49751275
H       -2.07070113      -1.90246791       5.01971390
O        0.67620968      -4.81080847       3.83205022
H        1.60945653      -4.73903203       4.03237570
H        0.37387534      -3.90478786       3.76918191
O        4.81421678      -3.09410237      -3.65672211
H        5.44537332      -3.15481157      -2.93965332
H        4.51379128      -2.18551264      -3.63572062
O       -4.95484961      -1.84808035       4.37208033
H       -4.90646173      -1.55310751       3.46275009
H       -5.88745522      -1.81644741       4.58533598
O       -6.03185779      -2.69989604      -3.13144096
H       -6.51754708      -2.62253010      -2.31025141
H       -5.14647801      -2.94677720      -2.86426280
O       -3.05520939       2.76883265      -5.87938271
H       -2.47983260       2.52670313      -5.15374734
H       -3.71259514       2.07361260      -5.90667541
O       -7.37994812      -1.85747550       2.08679723
H       -6.44782678      -1.66763130       1.98030399
H       -7.82131146      -1.20644318       1.54128173
O        4.89891636       5.31962069      -0.73917117
H        4.13129523       5.30075686      -1.31069002
H        4.70836283       4.67265291      -0.05994081
O       -0.91381933       5.99670362      -4.05898485
H       -0.56701746       5.54839077      -3.28763805
H       -0.15745724       6.44675155      -4.43528936
O        0.60614438       0.61492774      -7.23806258
H       -0.04189671       0.26592968      -6.62611901
H        0.52091124       0.06536578      -8.01713178
O        6.25390098       3.03492967      -2.25725364
H        5.71652031       3.68523879      -1.80497948
H        7.02881849       2.93720504      -1.70391416
O       -6.34174661       0.70500431       3.68855415
H       -6.57235888      -0.09486827       3.21605687
H       -6.61371572       0.53757531       4.59090229
O        3.42046757      -2.22896115       6.95339683
H        4.24506219      -1.75145289       7.04428915
H        3.19527336      -2.14479190       6.02687919
O        6.44921870       0.38353811       3.69627895
H        6.97370194       1.13302428       3.41446405
H        5.55579700       0.72274166       3.75078078
O        3.33074777      -3.15863387      -5.95915726
H        2.55729775      -3.71785253      -6.03183047
H        3.59613209      -3.23401872      -5.04257659
O       -5.68998319      -4.84409560       0.26950874
H       -5.24969682      -4.12804799      -0.18837288
H       -5.19076445      -5.62493683       0.03013567
O        3.54123441      -5.73004163      -3.36415018
H        3.07229281      -5.78455832      -4.19682872
H        3.96124412      -4.87007892      -3.38111542
O       -3.55661630       5.28164914      -4.00039561
H       -2.65235246       5.58235747      -4.09046921
H       -3.62903052       4.55139810      -4.61498607
O        0.39758865       7.40159061      -1.19203772
H        0.30313029       6.52523149      -1.56527244
H        0.08888031       7.99031157      -1.88076018
O        1.08733199       2.43333076       7.04368925
H        0.90431042       3.10459132       6.38631249
H        1.86051481       1.97693799       6.71183717
O       -3.77668711      -6.23245664       2.00386989
H       -3.57116270      -5.38473900       2.39803528
H       -3.50305433      -6.14521395       1.09077315
O        6.47941672      -3.86672200       0.45417904
H        7.06745173      -3.50912034      -0.21107859
H        7.04365713      -4.03155431       1.20962256
O        0.67261236      -7.09338321      -2.59961245
H        0.46699583      -6.85556722      -3.50371269
H        0.10789294      -7.84374849      -2.41447531
O       -4.86518146       4.75272250       3.45277892
H       -4.93203746       5.22010425       2.62012268
H       -4.17025853       5.20786376       3.92834217
O       -0.79657333       4.23378495      -6.26786360
H       -1.01146110       5.16580102      -6.23043193
H       -1.63785122       3.79893891      -6.40711971
O        4.54150983       3.15686594       5.29162963
H        3.78038478       3.72465357       5.41220201
H        4.35259552       2.66930227       4.48986601
O       -2.14910689      -4.95402218      -5.50502198
H       -2.29219850      -4.26904758      -6.15814250
H       -3.02486097      -5.16161507      -5.17915110
O        5.90982459       1.47250141      -4.77909003
H        5.00425016       1.16928422      -4.71408130
H        6.16219226       1.66977483      -3.87707806
O       -0.40552922       6.67644046       4.40921803
H       -0.39461459       5.89804977       3.85224348
H        0.06109440       6.41103119       5.20171545
O        4.27000199      -4.59160758       4.74710448
H        3.54791413      -5.21573437       4.81981433
H        3.85493994      -3.77604439       4.46636971
O       -4.05694042      -6.69068601      -0.88013277
H       -3.77095075      -7.45688278      -0.38275539
H       -4.24805012      -7.02985927      -1.75458713
O        5.13358716      -5.56195199       2.32242496
H        4.91218206      -5.09184503       3.12629751
H        5.26801696      -4.87352619       1.67109526
O       -5.53640120      -4.60326772       3.34581642
H       -5.40795249      -4.63537505       2.39781753
H       -5.19988436      -3.74537421       3.60467351
O       -5.09146233       6.10697707       0.90589383
H       -4.23000181       6.51827137       0.97628287
H       -5.18611573       5.90605519      -0.02518241
O       -5.42834493       5.55448516      -2.03156671
H       -4.71963770       5.88381541      -2.58429403
H       -5.36841460       4.60211198      -2.10657021
O       -7.48316858      -3.09300963      -0.78718461
H       -7.19089388      -3.93471315      -0.43740963
H       -7.63037331      -2.54953462      -0.01310611
O        0.95281940      -8.04135579       1.15665949
H        1.71756046      -8.11355917       0.58552936
H        0.72511649      -7.11185293       1.13646923
O       -7.51257100       1.96224000      -2.61031019
H       -8.00810044       1.16527152      -2.79878741
H       -8.17365931       2.59527895      -2.33021062
O        0.19979431      -6.41517005      -5.19754546
H       -0.54320301      -5.83246910      -5.35453727
H        0.93953401      -5.98048671      -5.62188897
O       -2.57181226      -2.95192336      -7.32100490
H       -2.54442192      -2.03122610      -7.58138570
H       -3.50183239      -3.13673237      -7.19008495
O       -3.28964739      -0.53263887       7.61179366
H       -2.78552124      -1.16541142       7.10023959
H       -2.63672826       0.08626770       7.93872349
O        3.31155378       1.96933380      -7.39570225
H        3.04613440       2.88178624      -7.51065848
H        2.48790985       1.48391399      -7.34869019
O        2.66458349      -1.84545667       3.83477098
H        2.04269310      -2.54326694       4.04103541
H        2.16576761      -1.23078181       3.29663589
O        1.18132929      -4.49532979      -6.97384709
H        0.56198940      -3.92975471      -6.51257192
H        1.50283644      -3.95859671      -7.69826589
O        1.95976095       7.46525555      -3.41778883
H        2.42215171       6.67774673      -3.13098491
H        2.53344455       8.18724894      -3.16118698
O        2.81765107       5.14821871       6.18965960
H        3.43664567       5.69026215       5.70051093
H        2.19452310       4.84157361       5.53093951
O       -6.38815987       2.92758583      -4.90212180
H       -5.54914746       3.00274525      -4.44754388
H       -6.99041956       2.58863742      -4.23983102
O        0.13688672      -2.08617131       8.34980304
H        0.37002924      -1.67205502       9.18069660
H        0.28562419      -1.40621593       7.69271120
O       -1.36443652       3.61636132       7.69913008
H       -1.73195886       3.50209057       6.82271615
H       -0.53673246       3.13611409       7.67675964
O       -2.68932105      -0.33820549      -8.17811154
H       -2.57383306       0.60623387      -8.28265177
H       -2.85692820      -0.65902510      -9.06423482
O       -5.72038514       3.30487395       5.61806950
H       -5.42067057       3.71143886       4.80498402
H       -6.65396995       3.51197679       5.66001777
O        1.62179825       4.09795300      -7.50575152
H        0.76710731       4.22345057      -7.09345844
H        2.23918826       4.52780462      -6.91389934
O       -2.04053977       2.29634756      -8.36947659
H       -2.57130871       2.88809024      -8.90272771
H       -2.41065958       2.36895861      -7.48972049
O       -5.04910937      -3.60405847      -6.40660953
H       -5.54676098      -2.92908777      -5.94510194
H       -5.25824513      -4.41524092      -5.94349281
O        5.69873902       6.07765181      -3.22939177
H        6.03407102       5.38150532      -3.79433811
H        5.83319843       5.75056354      -2.33991678
O        8.67873774      -0.94430324      -2.00770860
H        8.98139765      -0.04015994      -2.09228830
H        7.85106263      -0.87677776      -1.53165601
O        8.85795599      -1.03511571       1.23509708
H        9.51549115      -1.41041580       0.64941013
H        8.08263704      -0.92302088       0.68505424
O        3.96989348       5.61725751      -5.82286338
H        4.54533881       5.85225314      -6.55078615
H        4.50066725       5.76475549      -5.04007645
O        4.10963660      -8.04658624      -0.97885906
H        3.94233668      -7.38389757      -1.64899808
H        3.81252689      -7.64336336      -0.16315754
O       -2.20607071      -5.88753597       6.59181187
H       -2.31501148      -4.96622716       6.35611332
H       -2.64954487      -5.97341306       7.43572397
O        7.79768704       4.66994423      -0.72693575
H        8.20474078       5.53489823      -0.77586095
H        6.85738792       4.84797107      -0.70754883
O       -9.00933717       1.45239270       1.01991312
H       -8.07689422       1.38082214       0.81580619
H       -9.31279270       2.19553647       0.49848822
O       -0.24335422      -1.10569736      -9.16580774
H       -0.41153485      -1.86541899      -9.72327538
H       -1.00710667      -1.05606785      -8.59095911
O        6.54239957      -3.36329001       5.59907220
H        5.74319891      -3.78224495       5.27971832
H        7.11987752      -4.09140514       5.82841784
O        2.28303821      -8.27828009       3.51733611
H        1.81925338      -8.18656553       2.68503574
H        1.92148408      -7.58625681       4.07106370
O        0.06389989       1.24172789       9.26429049
H       -0.75800477       1.71806024       9.38181523
H        0.46727553       1.64512949       8.49566373
O       -2.67224685       8.90694928      -2.19522091
H       -1.77366181       8.97713486      -2.51747975
H       -2.58443336       8.88501247      -1.24230990
O       -5.41275386       0.44358991      -7.61799160
H       -4.49907339       0.23222918      -7.80968532
H       -5.66107507       1.07193459      -8.29604129
O        6.43564307       6.48659728       2.03258083
H        6.86116806       7.29987640       1.76103453
H        5.99698768       6.16999234       1.24291343
O        6.58697387      -0.81295215      -6.64847765
H        6.39470460      -0.09492519      -6.04540083
H        6.33181591      -0.47891031      -7.50844411
O       -2.22135646      -7.64291125      -5.02701536
H       -1.26593122      -7.59209726      -4.99851314
H       -2.43378790      -7.64589386      -5.96034051
O        7.68228941      -4.71025087       2.74328980
H        8.28575230      -5.24129896       3.26295538
H        6.86229248      -5.20401758       2.74888589
O        7.25222861       3.83504119      -4.65759099
H        6.81395020       3.07802253      -5.04626388
H        7.18760543       3.69116905      -3.71347421
O       -7.46884274      -2.14365385       5.36750728
H       -8.20159138      -2.47180688       5.88868562
H       -7.86093918      -1.89973505       4.52905880
O        5.78842396      -4.30546402      -6.16654301
H        5.44152563      -3.89506481      -5.37441557
H        5.15303271      -4.08663334      -6.84817557
O       -4.50426285      -7.63257067      -3.39233496
H       -3.70372730      -7.64647542      -3.91691225
H       -4.75241714      -8.55325531      -3.30872228
O       -5.75664884      -5.79591259      -4.95969473
H       -5.41178242      -6.33751387      -4.24978836
H       -6.65155217      -5.58875535      -4.69050011
O        2.43088975      -2.93986468      -8.82691406
H        2.55555474      -2.00106259      -8.96598641
H        3.31832143      -3.29599158      -8.78366507
O        4.72474007       6.70142702       5.02821418
H        5.19046811       6.72450419       4.19227358
H        5.04892087       7.46567735       5.50472241
O       -8.73365954      -2.97133444      -3.28916067
H       -8.41833878      -3.08384093      -2.39241826
H       -7.94064310      -2.97918245      -3.82515991
O        2.91550981      -0.29391000      -9.23028510
H        3.51043681      -0.48266582      -9.95600195
H        3.30401796       0.46330955      -8.79220770
O        7.17373941       2.82918226       5.89361917
H        7.62347366       2.72880960       5.05463391
H        6.25629045       2.96863311       5.65894340
O       -0.15303629       9.16829948      -3.18702543
H        0.72632286       8.90247463      -3.45590544
H       -0.31526442       9.98074215      -3.66645300
O        9.27609367       2.80703877       0.59306017
H       10.17273018       2.94274490       0.28669656
H        8.75561642       3.44186748       0.10079218
O       -7.28814977      -6.16974726      -1.76904409
H       -6.63813661      -6.55656568      -2.35563275
H       -6.77141268      -5.69698466      -1.11657941
O       -8.00969642       3.57145935       4.17362127
H       -7.55866348       2.73273458       4.07696778
H       -8.78959280       3.48919659       3.62478039
O       -8.51705986      -4.50934828       1.29211729
H       -8.18424758      -3.66246093       1.58918572
H       -8.99224746      -4.31082805       0.48526024
O       -9.15207720      -0.25006106      -3.32981965
H       -8.99465471      -1.19422718      -3.33040940
H       -9.47991538      -0.06087279      -4.20900210
