391
Properties=species:S:1:pos:R:3 charge=0 spin=8 spin_multiplicity=8 metal=Gd geometry=droplet boundary=non-pbc droplet_radius=9.729 pbc="F F F"
Gd       0.00000000       0.00000000       0.00000000
O        2.05689526       0.65630097       0.70096429
H        2.31585161       1.14394019       1.49118299
O       -0.99628169      -1.80922001       0.94183105
H       -1.17165360      -2.00757613       1.86875907
O       -1.06061357       1.15291905      -1.64279534
H       -1.97881944       1.11367936      -1.93374933
O        1.51845071      -1.86204181       0.18763719
H        1.52576782      -2.66661790      -0.33085643
H        2.24941855      -1.96280789       0.79736176
O        0.15514986       0.04278733       2.40462009
H        0.73738600       0.57711385       2.94473868
H       -0.35165095      -0.47073558       3.03365028
O       -0.94119375      -1.47022130      -1.66153653
H       -1.46383281      -2.25906129      -1.51727387
H       -0.87617189      -1.39621666      -2.61365381
O       -2.30449460       0.43460785       0.55544636
H       -2.82182547       1.21151051       0.34326044
H       -2.90763057      -0.13098441       1.03769551
O        1.46769431       0.47501939      -1.85157500
H        2.00222587      -0.14375658      -2.34919348
H        1.64676946       1.32475423      -2.25420962
O        0.10439346       2.37984854       0.36540790
H        0.60562692       2.84872350       1.03260587
H       -0.34608292       3.06807821      -0.12412534
O       -3.34046077      -2.06156292      -0.41446814
H       -2.55300138      -2.05337984       0.12965738
H       -4.01289059      -2.45394980       0.14240035
O       -1.45566123       4.41593810      -0.53889398
H       -2.39693765       4.38850773      -0.36720207
H       -1.09035480       4.89810529       0.20292665
O        1.28736827       3.22044975       2.66593293
H        0.68894753       2.65282348       3.15165392
H        1.89439353       3.55157666       3.32782956
O       -0.52999455      -0.91083484      -4.29144185
H       -0.39549783      -0.05910008      -4.70700215
H        0.04028742      -1.50725576      -4.77651134
O       -4.13666596       0.19676686      -1.70458592
H       -3.87119393      -0.58952327      -1.22761185
H       -4.54846707       0.75168062      -1.04222469
O       -1.04925038      -1.37224878       4.39095095
H       -0.22694834      -1.18414355       4.84335301
H       -1.00006851      -2.30498096       4.18160993
O        4.62585897       1.37239164       0.16648756
H        4.69375579       2.19563228      -0.31714113
H        3.69971636       1.13703456       0.11082110
O       -4.40614968      -0.71824458       1.84089461
H       -4.74721130       0.17601777       1.82662394
H       -5.09312138      -1.24367055       1.43073699
O        2.30479137      -4.31514831      -0.68548062
H        2.33755819      -4.99448234      -1.35902605
H        3.18339252      -4.31122244      -0.30564322
O       -1.40652884       2.82012647      -7.24031945
H       -1.67153032       3.69580852      -7.52172129
H       -0.76726941       2.97474240      -6.54485332
O       -0.36761245      -5.22827116      -0.13024450
H        0.41143501      -4.67225609      -0.11743310
H       -0.71935256      -5.16905219       0.75801438
O        3.52858133      -1.14278053       3.71186502
H        3.51703904      -1.38885243       4.63682299
H        4.45803066      -1.08121187       3.49149018
O        3.45780636       2.94368527      -2.74213367
H        2.95678200       2.73804384      -1.95288211
H        4.35762643       3.05126941      -2.43394325
O       -3.19610876      -1.37977768      -4.01388693
H       -2.28840401      -1.07604139      -4.00694399
H       -3.62068018      -0.88325327      -3.31429101
O        4.02112588      -3.04545785       1.67407283
H        3.65352680      -2.46018158       2.33630725
H        4.66323449      -2.50883243       1.20935621
O        3.95934635       3.17365741       2.15922669
H        3.95001802       2.48956954       1.48977273
H        3.73534595       2.71827786       2.97082087
O        0.24550214      -3.52102357      -4.18401274
H       -0.59810378      -3.19885099      -3.86657659
H        0.51893647      -4.16333590      -3.52910787
O       -2.22844468       1.01501784       4.94670176
H       -1.77833558       0.18671327       4.78073433
H       -1.79488204       1.64360226       4.36952163
O        1.41118597       0.66367598      -5.36435091
H        2.32821791       0.83954948      -5.57495189
H        1.21605832      -0.16005524      -5.81114382
O        1.03346955      -4.21922629       3.60751200
H        0.20877349      -4.52999492       3.23397337
H        0.83768819      -3.33582886       3.91977868
O        1.18078172       3.41181145      -4.37107424
H        1.37624399       2.57348497      -4.78968511
H        1.92926699       3.57356459      -3.79675937
O       -4.09350604       4.06908323      -1.10417739
H       -4.75552623       4.65337564      -0.73463241
H       -4.34246041       3.19815836      -0.79475302
O        3.46846792       1.51859324       4.28700392
H        4.11765187       1.62561340       4.98222958
H        3.51054896       0.58957978       4.06029923
O       -1.68346795      -5.04455161       2.24318581
H       -2.18383848      -5.85198158       2.36116047
H       -2.21474200      -4.36919269       2.66493225
O        3.01984062      -3.24317625      -3.73740920
H        2.21375340      -2.74619161      -3.87691370
H        3.29391473      -3.50738338      -4.61565166
O        5.88993150      -1.03534646       0.10887392
H        5.39660144      -1.66386507      -0.41821397
H        5.37627343      -0.22889919       0.06381807
O       -4.12928210       1.62776069      -4.01772278
H       -4.36375324       1.06557968      -4.75610455
H       -4.12183483       1.04051269      -3.26186818
O       -3.14974658       4.63545708       2.22214131
H       -2.51382455       4.28285215       1.59964249
H       -2.73362776       4.52754638       3.07737943
O        3.88120904       4.64272166      -0.12859859
H        3.15756807       4.22261871      -0.59345243
H        3.80975781       4.31899557       0.76935908
O        4.73652673      -1.13795275      -3.59483581
H        4.12393719      -1.86176458      -3.72545868
H        4.69804614      -0.95751806      -2.65558376
O       -3.37962566      -4.82678745      -1.40842430
H       -3.27007139      -3.92728531      -1.09999989
H       -3.28140514      -5.36374013      -0.62212513
O       -0.97947447      -5.50418446      -2.76613083
H       -0.41451423      -5.27188091      -2.02918658
H       -1.86696815      -5.46564619      -2.40961768
O       -3.56022468      -2.48699953       4.93963947
H       -3.19698499      -3.36499609       4.82383440
H       -2.84006804      -1.89779900       4.71503092
O       -7.62843393       0.77457576       0.02051118
H       -6.93794523       1.37542381       0.30058049
H       -7.46184166       0.63535545      -0.91174230
O        1.78928941      -6.26060365       1.16608262
H        0.97862521      -6.67807583       0.87492567
H        1.99871487      -5.63397444       0.47347258
O        1.88037882      -5.61209766      -3.03839265
H        2.41503094      -4.86056414      -3.29447139
H        1.41199489      -5.85652121      -3.83658152
O       -5.66279907      -2.25586877      -2.83758975
H       -6.24856162      -1.93975978      -3.52547722
H       -5.31347929      -1.46049795      -2.43560368
O        4.21132225       0.92779476      -5.28458445
H        4.35729903       0.18497343      -4.69880369
H        3.88338143       1.62270504      -4.71380748
O        5.94811929       3.13223099      -1.48731713
H        5.49158363       3.84902866      -1.04685358
H        6.32976930       3.53432763      -2.26763334
O        0.94799258      -2.09216162      -6.58884113
H        0.25610707      -2.66362696      -6.92193820
H        1.61528031      -2.69220263      -6.25581003
O        7.00402551       1.05478664      -3.55446229
H        6.72827986       1.65473282      -2.86145381
H        6.25792216       0.46721712      -3.67414397
O       -2.20195556      -4.19051206      -5.16391122
H       -3.15747098      -4.24359070      -5.18403013
H       -1.95323442      -4.64516402      -4.35913720
O       -2.08603831       6.63805044      -1.97507101
H       -2.92848942       6.85870980      -1.57780861
H       -1.80629158       5.84425061      -1.51915935
O        1.16911251       6.90361959      -0.65661828
H        0.23712663       6.79281087      -0.84464911
H        1.56328400       7.10256481      -1.50590119
O        6.19314335      -1.02959783       3.17735429
H        6.02350496      -0.95752280       2.23806740
H        6.98949565      -0.51730803       3.31740429
O        3.29574406       4.21272916       4.61896500
H        3.08507088       3.30410422       4.83402168
H        4.20909099       4.18627978       4.33378147
O       -2.23076993      -1.11385150      -6.61520261
H       -1.81308983      -1.76054745      -7.18402554
H       -1.60140423      -0.97456269      -5.90758034
O       -5.95492081      -1.00564391       4.07773946
H       -5.29455702      -0.87298144       3.39762758
H       -6.66374396      -1.47329999       3.63603891
O        7.12856762       1.87808811       1.10398258
H        6.26953416       1.68747293       0.72720786
H        6.99557453       1.81327818       2.04968039
O        0.97330592       1.20002513       7.16045655
H        0.43938655       1.73588243       7.74698779
H        1.85412716       1.56717850       7.23518394
O       -0.79638413       5.44649263       4.87496954
H       -1.20068217       5.30186626       4.01948245
H       -1.24213375       4.83201762       5.45803006
O        2.75009080      -3.67166365       5.80863775
H        3.62057001      -3.33159816       5.60162750
H        2.37955025      -3.91509351       4.96030205
O        4.24806194      -4.72819540       3.79910470
H        3.72778766      -5.24216893       4.41666257
H        4.81914643      -4.19495524       4.35205069
O       -7.33922773      -1.98467357       1.41562522
H       -7.41054053      -1.11056973       1.03210365
H       -6.93555969      -2.51574092       0.72914767
O       -1.32027137      -0.51867093       7.36369524
H       -0.47885056      -0.06655150       7.42558939
H       -1.38316898      -0.78409607       6.44618490
O       -4.29606496       2.69455893       5.54991223
H       -3.55920925       2.10881865       5.37617727
H       -4.91464845       2.51886980       4.84088499
O       -4.76034994      -5.32298062       2.48544814
H       -5.22668953      -4.68168598       3.02163879
H       -4.85643657      -6.14834308       2.96060707
O       -4.37692313      -0.10284831       6.18477086
H       -4.13635716      -0.93380602       5.77505250
H       -5.04224184      -0.33792023       6.83155061
O       -2.93741846       7.01415337       0.92017272
H       -3.04235503       6.27409919       1.51811919
H       -2.29319176       6.71483500       0.27860253
O       -7.36544018       0.66036823      -3.08041945
H       -7.38179188       0.83821992      -4.02080939
H       -6.87641606      -0.15849779      -2.99951399
O       -3.76708909      -6.79691359       0.42648034
H       -4.00529018      -6.33726590       1.23159902
H       -2.86782759      -7.08965446       0.57434299
O       -1.97532989       3.67581468       6.57447366
H       -2.59207698       2.99912347       6.85365796
H       -1.85961739       4.22865509       7.34726726
O       -6.63041696       1.61148980       3.77324631
H       -6.48472064       0.67554099       3.91110217
H       -7.56567557       1.73518809       3.93517815
O        4.34135280       6.00536222      -2.43725155
H        4.16961822       5.57738935      -1.59845581
H        4.78877342       5.33939651      -2.95930167
O       -4.83227754      -3.49943825      -5.11675969
H       -5.67992298      -3.07411827      -5.24649773
H       -4.34176811      -2.89279207      -4.56213121
O       -4.83866493       0.01344076      -6.30441914
H       -4.90438724       0.71476731      -6.95253448
H       -3.94601130      -0.31865967      -6.39986875
O       -1.81877046       6.03389032      -4.85869704
H       -1.56587988       6.85181790      -5.28680062
H       -1.90711923       6.26440569      -3.93387868
O       -1.29280161      -7.85767121       0.03777092
H       -1.08208575      -8.19255829       0.90936790
H       -0.85395929      -7.00809432      -0.00545372
O       -6.49211910       3.95173340       2.39392271
H       -6.57434357       3.09625479       2.81538128
H       -6.96903234       3.85974217       1.56910563
O        6.53404683      -3.83483462       2.62668003
H        6.83290844      -2.93603797       2.76480377
H        5.60051414      -3.75021037       2.43280560
O        6.40360556      -3.98118175      -2.74068783
H        7.31195205      -3.86436587      -3.01906266
H        5.95264136      -3.19909125      -3.05880350
O        1.91451919      -6.77966675       3.92970702
H        1.78229474      -5.84674794       3.76115130
H        2.85606465      -6.91234430       3.81961314
O       -0.25501286      -7.65804309       2.54407153
H        0.42493036      -7.28987379       3.10830589
H       -1.07755112      -7.37438576       2.94307175
O        0.66817674       4.26040990       6.83626222
H        0.22306829       3.70447086       7.47582621
H        0.51047771       5.15318324       7.14337556
O       -1.18853716      -3.93461926       7.00760291
H       -0.79679364      -3.73152722       6.15817812
H       -0.75633868      -3.33905251       7.61976020
O       -5.68616279       5.89056420       0.13839054
H       -5.89630743       5.47039385       0.97237372
H       -4.85266070       6.33391471       0.29633495
O        0.75775897      -5.00240188      -6.40696387
H        0.58735571      -4.36214691      -5.71611790
H        0.16184990      -4.75636149      -7.11448654
O        3.42128532      -0.55735349      -7.42200729
H        3.77131290      -0.03173643      -6.70267479
H        2.80464508      -1.15752707      -7.00274802
O       -5.92156934      -3.71241728       4.34449530
H       -5.23726018      -3.08129597       4.56729276
H       -6.42534405      -3.81519119       5.15188641
O       -3.71170710      -5.40932797       4.99377752
H       -4.03828584      -6.04099305       5.63454065
H       -4.47034889      -4.86367180       4.78652449
O        3.81341625      -4.49274351      -6.01934481
H        2.87767306      -4.66671772      -6.12107727
H        3.95074840      -3.65377398      -6.45923326
O        5.68174887      -2.87779693       5.51445697
H        6.06278163      -2.45123020       6.28197682
H        5.86364528      -2.27763366       4.79130443
O       -2.91258631      -7.36160896       3.04189694
H       -3.20876320      -6.76823723       3.73212958
H       -3.71603849      -7.75862498       2.70563112
O        8.40413798      -0.86947377      -1.37283266
H        8.93723020      -0.32628526      -0.79232360
H        7.66034856      -1.13853684      -0.83374621
O       -3.01206580       1.54145501       7.90416978
H       -2.42582113       0.80679664       7.72299005
H       -3.71435412       1.45262238       7.25986262
O       -1.10050655      -3.54857406      -7.76034729
H       -1.42571328      -3.63839933      -6.86457732
H       -1.72134642      -4.04657290      -8.29212436
O       -0.31199358      -7.23620013      -4.75730113
H       -0.61343876      -6.66629792      -4.04978851
H        0.21982949      -6.66718482      -5.31373409
O        1.71379021       6.23670350      -5.81717109
H        1.53021340       5.39887282      -5.39223446
H        2.63959949       6.18729329      -6.05522077
O       -5.44918246       6.36486241      -2.59891418
H       -5.39088167       6.32438199      -1.64434926
H       -6.16007103       5.76380933      -2.82163478
O       -2.71683282      -7.56898267      -3.53075964
H       -3.53579564      -7.30149680      -3.11364688
H       -2.14248325      -7.80515499      -2.80235244
O        0.09797574       7.87287970       4.03166280
H       -0.20320507       7.07088950       4.45866828
H       -0.69826215       8.27110663       3.68002041
O        4.75496859       1.57509036       7.33198324
H        4.19099763       0.93824486       6.89312516
H        4.23380013       2.37745134       7.36083006
O       -5.11747749      -6.83063935      -2.48665510
H       -4.64422628      -6.21010702      -1.93239456
H       -5.21947346      -7.61043269      -1.94098944
O        2.58524031       7.67179594      -3.67719809
H        2.17474595       7.23505928      -4.42351392
H        3.11936546       6.99242419      -3.26562040
O       -6.61013254      -4.80986654      -3.52918000
H       -6.13748491      -3.97929107      -3.47458654
H       -5.96937380      -5.46866477      -3.26151422
O       -7.89995420      -3.96327673      -1.28908050
H       -7.44996384      -4.27519279      -2.07422309
H       -8.77559302      -4.34563288      -1.34645893
O        2.75690803      -2.18225635       8.21250574
H        2.73277020      -2.67802016       7.39405143
H        3.58276056      -1.69965654       8.17649389
O        3.90899665       2.40477456      -7.68822386
H        3.25909475       1.93346766      -8.20950035
H        3.97382221       1.90364005      -6.87527017
O       -6.98372483      -1.85083020      -5.34428133
H       -7.72078320      -1.26342562      -5.17715065
H       -6.28695634      -1.27698904      -5.66279637
O        3.27588905       3.85209401       7.49316001
H        3.62921134       4.62087399       7.04553010
H        2.32726939       3.93039591       7.39205913
O        8.39915130       0.55690448       3.29963246
H        8.77626924       0.60112499       2.42096390
H        9.13627330       0.72732055       3.88601235
O        1.01173498      -6.24451032       6.52055713
H        1.33633794      -6.48178092       5.65189873
H        0.28652063      -5.64354712       6.34985497
O       -5.14112052       3.97792994      -6.43254124
H       -5.26918819       4.79020194      -5.94259765
H       -4.88567591       3.33587000      -5.77016754
O        0.05983194      -2.34944700       8.85394406
H       -0.34206420      -1.48325935       8.78738359
H        0.99900940      -2.18544492       8.76861617
O       -7.55575820       4.92870855      -1.65117959
H       -7.83079651       4.06030734      -1.35713007
H       -6.96084619       5.23637545      -0.96732827
O        6.25353574      -6.47574133       1.79689321
H        5.30805190      -6.62323624       1.82007494
H        6.35984560      -5.55954175       2.05283925
O       -0.66572684       2.65206129       8.77615555
H       -0.83075059       3.36193095       9.39670698
H       -1.53517422       2.39370840       8.47030122
O        1.96024233      -8.26151513      -3.64880914
H        2.34911272      -7.53837953      -3.15678621
H        1.21314079      -7.86969672      -4.10108060
O       -6.04347718      -2.21026349       6.60879825
H       -5.97468008      -1.74493816       5.77514896
H       -6.57799210      -1.63823663       7.15953495
O        8.45892671       4.08655376       0.23729680
H        8.00464886       3.29833967       0.53492414
H        9.09952296       3.76856452      -0.39890374
O        7.58589894       3.94930805       3.86833221
H        7.47093643       3.39478069       3.09663611
H        7.38748484       3.37520422       4.60810817
O        1.46903118      -1.19795756      -9.20434570
H        1.11944533      -1.72065206      -8.48267263
H        2.30607929      -0.86770116      -8.87798238
O        0.93412558       9.34699547       0.51517328
H        1.45108752       9.91871898      -0.05237798
H        0.99840018       8.48303117       0.10815202
O        4.67368661       7.41576670       3.73784234
H        4.56312757       6.99768898       4.59178587
H        5.38501655       6.92835657       3.32230302
O        6.70226834      -6.55840932      -1.83665705
H        6.36598468      -6.56085563      -0.94047673
H        6.61382459      -5.64955247      -2.12369147
O        9.19091208      -2.55743293       0.60967615
H        8.67033958      -1.84301203       0.97688029
H        9.20130729      -2.38727524      -0.33222095
O       -6.22717963       6.52665311       3.22938399
H       -6.30611515       5.62739708       2.91104515
H       -5.28869266       6.71185528       3.19511747
O       -2.77587905      -2.61841681       8.79877613
H       -2.25911070      -2.68846303       9.60144408
H       -2.33663279      -1.93750476       8.28921422
O        9.60573455       0.95235538       0.46763310
H       10.21801684       1.64329286       0.72051181
H        8.74035494       1.34597736       0.57904097
O       -1.77385008       9.48879438       0.72768423
H       -0.85879863       9.20805083       0.71789922
H       -2.27215940       8.67900833       0.83798480
O        3.91535822       6.22918783       6.33604975
H        3.34527522       5.92354082       5.63048819
H        3.76011364       7.17276892       6.37830732
O       -2.33755303       8.84510934       3.30960378
H       -2.98887709       8.81509423       4.01039470
H       -2.62659323       8.18014978       2.68469068
