391
Properties=species:S:1:pos:R:3 charge=0 spin=1 spin_multiplicity=1 metal=La geometry=droplet boundary=non-pbc droplet_radius=9.7223 pbc="F F F"
La       0.00000000       0.00000000       0.00000000
O       -0.65442983      -1.71025522       1.55136994
H       -1.51536827      -2.11907110       1.69611306
O        2.30138169       0.21827473      -0.64497941
H        3.08457458      -0.23196156      -0.30853897
O       -1.64695186       1.49198048      -0.90639053
H       -2.55133144       1.66413379      -0.62045904
O        1.55578058      -0.10079533       2.00523991
H        1.31830533      -0.08540987       2.93238640
H        2.51097574      -0.16268016       2.00315996
O        1.03485803      -2.24607487      -0.57949678
H        0.58376493      -3.07451161      -0.74209881
H        1.96335663      -2.45380779      -0.68423088
O        0.77516702       2.41774685       0.07222373
H        0.94739755       2.95493406       0.84552729
H        0.96054014       2.99592580      -0.66776123
O        0.25424447       0.27246730      -2.51251295
H        1.05430872       0.19498034      -3.03224827
H       -0.42853054       0.47565015      -3.15186172
O       -1.54956378       0.90096780       1.79964138
H       -1.31137411       1.23454611       2.66464025
H       -2.50260539       0.98302812       1.76486141
O       -2.07048633      -1.24431175      -0.78509530
H       -2.76376215      -1.62628213      -0.24685827
H       -2.33237685      -1.43637301      -1.68551613
O       -0.71477199       2.16882403      -6.63694641
H       -0.80205838       3.09538465      -6.41311982
H       -0.94859865       1.70469474      -5.83311749
O       -2.01173099       0.98372713      -3.83808104
H       -2.51876853       1.53666518      -4.43255921
H       -2.14236601       1.37643522      -2.97497810
O       -0.48081689       3.36799975      -2.49355180
H       -1.03864365       2.90461165      -1.86878575
H       -0.95598674       4.17635125      -2.68594021
O       -2.25399433       3.52815005       1.80915626
H       -2.36014070       3.14971853       2.68194167
H       -1.48058542       3.09242151       1.45109044
O        0.79797604      -3.27334022       3.23828501
H        1.30785048      -4.02001062       2.92405068
H        0.34750043      -2.94569958       2.45985378
O        3.88888302      -0.24705578       3.39579408
H        4.75255712      -0.04675109       3.75659445
H        3.36077035      -0.48781488       4.15695366
O        3.74458665       0.34334775      -2.95471396
H        3.63561021      -0.48782855      -3.41677666
H        3.16479768       0.27409323      -2.19624155
O        1.22686736       3.77120992       2.68900981
H        0.59169296       4.38767651       2.32465523
H        2.06579148       4.22839481       2.63052789
O        0.93172461      -0.89975282      -4.97547070
H        0.25894670      -0.29408330      -5.28654329
H        1.75195539      -0.54295331      -5.31627478
O       -2.49683259       1.96628108       4.15962544
H       -3.40710510       2.23552816       4.03657335
H       -2.25620349       2.31828508       5.01661007
O        4.12471907      -3.09462076      -0.94346648
H        4.89412081      -2.76686431      -0.47781800
H        4.41237848      -3.17931580      -1.85248279
O       -4.93829669       1.89525799       0.41550308
H       -5.57353455       1.63359141      -0.25100671
H       -4.26761619       1.21282871       0.38886138
O        4.49916328       2.87725461      -0.52509813
H        3.70921142       3.39911232      -0.66606775
H        4.17440192       1.99847926      -0.32884373
O        2.14483198       4.98317330      -0.97700349
H        1.97206472       5.26835302      -0.07975445
H        1.66187618       5.60341682      -1.52315686
O       -4.42036502      -2.85052564      -2.10520654
H       -4.65168183      -3.77935053      -2.10225849
H       -4.35964796      -2.61538937      -1.17932522
O        1.30781559       1.92380967       5.26136873
H        1.27387061       2.42510003       4.44663715
H        0.51930086       1.38148144       5.24248884
O       -2.56491777       5.19165193      -0.59484842
H       -2.62258375       4.88365242       0.30960875
H       -3.40491038       5.62137005      -0.75605205
O       -0.82936750      -4.63861851      -3.45189724
H       -1.27323411      -3.98995037      -2.90559703
H       -0.21967356      -4.12740188      -3.98402757
O       -0.77462840       5.78537272       1.47030231
H       -1.25262910       4.98851536       1.70000979
H       -0.19392103       5.51975600       0.75723951
O        2.94475487       2.43148863      -4.79726940
H        3.28149457       1.68470764      -4.30213672
H        3.19714887       2.25235308      -5.70305059
O       -3.32578359      -0.36336161       5.29276498
H       -3.33859695      -1.20654496       5.74565513
H       -2.39603989      -0.16521234       5.18075890
O        3.53045524      -2.60176786      -4.57610579
H        4.40513568      -2.23984443      -4.43405860
H        3.27744337      -2.28472644      -5.44311304
O        6.10126641      -0.28207656      -1.72852113
H        6.55535457       0.50526236      -1.42829918
H        5.17876974      -0.02891631      -1.76230897
O        4.60265563      -3.62257017       2.50311259
H        3.76166282      -3.30183133       2.17739869
H        4.37101641      -4.28223309       3.15688621
O       -3.54232173       2.85297774      -5.08752265
H       -4.18039395       3.42670510      -4.66333802
H       -4.06730771       2.14561047      -5.46202647
O        2.96329657      -5.30338079      -2.02562188
H        3.20621718      -5.40828236      -1.10572130
H        3.76047514      -4.98563025      -2.44961806
O        2.17886804      -1.49819764       5.86131505
H        1.26445962      -1.74836838       5.72901359
H        2.15772311      -0.54450595       5.94041555
O       -0.14696676      -3.05209940       5.77925640
H        0.34827956      -3.36603948       5.02268217
H        0.27355231      -3.46917549       6.53121589
O        3.45842659      -0.10153810      -5.64478468
H        4.40767850       0.02125021      -5.65348448
H        3.14656792       0.38446308      -6.40818422
O       -2.40882492      -4.28044318       4.41472914
H       -2.70151751      -3.77230425       5.17127240
H       -3.10459059      -4.92237356       4.27306983
O       -1.58334557       5.78563565      -3.07481522
H       -1.96879005       5.82034706      -2.19933848
H       -1.49402534       6.70267061      -3.33423884
O       -5.39406938      -1.27264301       3.77823496
H       -4.55669973      -1.10972076       4.21240110
H       -6.05176106      -0.96687208       4.40287697
O        2.25927399      -5.65512088       2.87893674
H        2.83850120      -5.37790499       3.58878111
H        2.57961372      -6.52290084       2.63282244
O        6.26044800      -2.46791831       0.61996118
H        6.75614202      -3.16965071       0.19795298
H        5.72129447      -2.91412973       1.27298543
O        0.49666221      -3.44599246      -5.82740052
H        0.74178193      -2.58632991      -5.48516016
H       -0.46035754      -3.43451478      -5.84200512
O       -4.77435976       3.35110811       3.61784677
H       -4.71239183       4.15025757       3.09463366
H       -5.35353573       2.77896682       3.11441715
O       -0.39401907      -6.03792294       3.33926119
H       -0.80289634      -5.37063843       2.78809642
H        0.54117891      -5.96724545       3.14784211
O       -6.07533667       0.77495999      -3.22274606
H       -5.50004042       1.48225316      -2.93119427
H       -5.97545118       0.76130468      -4.17462224
O       -0.52103165       4.74082146       5.19860754
H       -0.91928454       3.97975065       5.62097906
H       -0.33719791       4.45062802       4.30517328
O        2.79054693       7.04834015       2.11202800
H        3.12796119       7.21492293       1.23189527
H        1.96285753       7.52789700       2.14648583
O       -3.00634065      -0.35482328      -6.51507547
H       -2.73883947       0.02077851      -5.67626784
H       -2.81467110       0.32939084      -7.15643782
O       -4.45562472      -2.39281191      -5.13016813
H       -3.91637580      -1.76395284      -5.60972908
H       -4.34473892      -2.15182754      -4.21046018
O        0.80428609      -7.18053458      -0.27942569
H        1.42649576      -6.66156955      -0.78909447
H        0.10472152      -7.39164563      -0.89770829
O       -2.26652556      -3.92214363      -5.64726519
H       -2.98135772      -3.42902493      -5.24467263
H       -1.89810581      -4.43892285      -4.93071934
O       -6.63459051       4.14326829      -1.40937499
H       -7.46219440       4.47410290      -1.75844820
H       -6.80829557       3.22295076      -1.21170344
O       -2.45001884      -4.80307961       0.26892021
H       -1.56792627      -4.44020868       0.18848871
H       -2.99273727      -4.05902279       0.52981865
O        0.96511794       6.68242771      -2.74313288
H        0.25117100       6.04506950      -2.76004793
H        1.15682507       6.85257818      -3.66537419
O       -1.60333359       2.69247389       6.62391111
H       -1.94955984       2.35359678       7.44945428
H       -0.77830708       2.22344077       6.49912719
O       -7.19251710      -1.66614116       0.44720567
H       -8.13049818      -1.47594592       0.46298883
H       -7.12201335      -2.55509700       0.79508292
O        5.26543726      -4.15683007      -3.17256302
H        5.20548540      -4.52068360      -4.05587963
H        5.66104275      -3.29382565      -3.29483938
O        5.27468765       2.51933729       2.48787312
H        5.00823792       2.70489010       1.58742516
H        4.83393280       1.69761846       2.70407943
O       -7.13559541       1.18339446       1.86384814
H       -7.35327659       2.11527436       1.88498093
H       -6.23461535       1.15465040       1.54191561
O       -4.82050417       5.40651417       1.83663449
H       -4.67386484       5.16179842       0.92293709
H       -4.30456845       6.20367850       1.95734574
O       -7.36811517       0.94300212      -0.83551218
H       -7.39736838       0.03958936      -0.52051777
H       -6.94236649       0.88525299      -1.69086879
O        7.11310209       2.26752571      -0.96550994
H        7.43793693       2.63216816      -0.14225417
H        6.16118896       2.34710893      -0.90419318
O        6.08968765      -1.73259513      -4.11820700
H        6.24164459      -1.26373251      -3.29765305
H        6.41486508      -1.14072341      -4.79657220
O        7.18586772      -0.65166854       2.42085952
H        7.28809858      -1.56877974       2.67519736
H        6.24033020      -0.50320453       2.43306916
O        3.63535159       1.32454219       6.61577183
H        2.93341963       1.30322932       5.96533420
H        4.26513999       1.95625969       6.26859549
O        6.66420915       1.52254946      -3.68427957
H        6.81250107       1.87123932      -2.80527062
H        7.10688632       0.67386321      -3.68363442
O       -3.63704775      -5.97624539      -3.41021476
H       -2.76539385      -5.58336493      -3.45599973
H       -4.22951634      -5.27934365      -3.69224452
O       -3.18091450      -2.73170280       6.62256682
H       -2.42282186      -2.32334769       7.04062600
H       -3.61605556      -3.20939025       7.32875292
O       -1.37711449       5.20272989      -5.72372432
H       -1.43334288       5.40340014      -4.78948578
H       -0.80237910       5.87995504      -6.08048359
O        2.36759645      -5.35732469      -5.33261351
H        1.87881727      -4.70005916      -5.82792024
H        3.25974478      -5.30132655      -5.67491076
O        5.52543321      -5.68754308       0.98740168
H        5.47283354      -6.47589969       1.52773397
H        5.14131821      -4.99874420       1.52984394
O       -5.04342060       1.89815290       5.92598135
H       -4.58780280       1.11238902       5.62395588
H       -5.13903273       2.43693400       5.14061195
O       -0.76658548      -1.45526901       7.89221766
H       -0.75487731      -0.93648949       8.69655750
H       -0.00193302      -2.02657459       7.96396991
O        4.28008817       6.05139601      -3.08393793
H        4.59159121       6.79809123      -2.57242650
H        3.43302575       5.83149525      -2.69617416
O       -5.46679086       0.60775096      -5.86851875
H       -4.63359405       0.29931001      -6.22471968
H       -6.02243607       0.73882581      -6.63683484
O       -6.93577195      -2.64933184      -3.12152280
H       -6.60318815      -3.34753730      -3.68555205
H       -6.26696494      -2.54895461      -2.44413559
O       -5.79095963      -3.95680877       3.96831987
H       -5.51702755      -3.04980319       3.83218051
H       -6.59104055      -3.89020487       4.48953603
O        4.65448848       3.69149161       5.46670196
H        4.27087561       4.02120869       4.65407680
H        3.99912368       3.88458534       6.13710753
O       -1.92974144       7.83646493      -0.59356448
H       -1.88414571       6.88762485      -0.47585563
H       -1.09487661       8.06821362      -1.00041224
O       -4.21576153      -2.43254029       1.16826967
H       -4.74691071      -3.21402935       1.01534080
H       -4.59935496      -2.03038684       1.94760305
O       -5.94248904       3.94556247      -4.42145127
H       -6.76822733       4.07827344      -4.88704327
H       -6.18284246       3.96867308      -3.49520725
O       -5.52327633      -5.97793635      -1.45048547
H       -5.66223571      -6.77102797      -1.96810290
H       -6.40521079      -5.67098167      -1.24024210
O        2.95718592       1.76343330      -7.56044960
H        3.00068063       2.05137074      -8.47227858
H        2.06888467       1.98488395      -7.28096376
O       -1.56378097      -7.79131699      -2.46745130
H       -1.77735617      -7.69348611      -3.39537727
H       -2.36553231      -8.13268075      -2.07134854
O        4.39201619      -5.42988916       4.55198260
H        3.99611822      -5.96802754       5.23747783
H        4.93731341      -4.80141987       5.02517298
O       -2.74287356       7.63329156       1.99408633
H       -2.62026878       8.02021555       1.12720126
H       -2.14078319       6.88938903       2.01219851
O       -4.57810717       6.91971858      -1.20156998
H       -5.14385748       6.94836801      -0.42998872
H       -3.83626260       7.48105729      -0.97618737
O       -4.05230780       6.03974626      -4.27764200
H       -3.29231123       5.71777229      -3.79290515
H       -4.65900480       5.29951373      -4.29200800
O       -7.19303414       4.08082147       1.72690591
H       -6.31860632       4.46478799       1.79153973
H       -7.32443688       3.93962393       0.78934076
O        5.26542469      -3.16720647       5.80924460
H        4.94185065      -2.82543705       4.97574274
H        5.07890756      -2.47338957       6.44174860
O       -7.17432059      -4.35142937       1.57864323
H       -6.71510245      -4.25012788       2.41236294
H       -8.10241246      -4.31121405       1.80942461
O       -1.03196161      -6.00707150       6.00262175
H       -0.80783562      -6.07852705       5.07477830
H       -0.97144550      -5.07089240       6.19272257
O       -5.80213670      -4.71933758      -4.47368675
H       -5.78602301      -5.57474528      -4.90293011
H       -5.19515619      -4.18327272      -4.98402092
O        1.50526295      -3.03712701       8.06270039
H        1.88800344      -2.73432751       8.88614074
H        1.91245476      -2.48814666       7.39259050
O       -7.65863323       0.14002872       4.32072000
H       -8.40125635       0.65719347       4.63262280
H       -7.45626791       0.50577010       3.45960830
O        1.03219649       0.24467417      -8.73781596
H        1.91991993       0.41216511      -8.42138949
H        1.15128865      -0.33121812      -9.49306225
O        6.72472905       4.85661307      -2.98220869
H        5.89306982       5.32115296      -3.07589677
H        6.95187325       4.95523987      -2.05759520
O        8.64559687      -1.18272745      -1.39144439
H        9.04164094      -1.21589475      -2.26223762
H        7.71020885      -1.06568625      -1.55752407
O        7.48923951      -3.48556233       3.17013303
H        6.55505377      -3.48867199       2.96152053
H        7.74634787      -4.40686451       3.13367177
O       -4.50746651      -6.34198888       4.21724010
H       -5.22890292      -6.96917296       4.26624500
H       -4.93545653      -5.49014769       4.13108339
O        2.47575828       3.52321451       7.78129710
H        2.22101277       4.03990867       7.01686024
H        2.89929703       2.74656131       7.41570639
O        2.21942689       4.72691693      -7.21898275
H        1.29924148       4.64333026      -7.46899062
H        2.58828009       3.85606217      -7.36660100
O        7.95181470       3.72918544       1.60488902
H        7.90232427       4.48901523       2.18492457
H        7.10311796       3.29734285       1.70213951
O        5.73832666       1.47488542      -6.69616068
H        6.09148555       2.36376744      -6.65875250
H        4.83513272       1.58776351      -6.99235503
O        4.71684871      -1.13263016       7.53347769
H        4.32373893      -0.31142479       7.23798102
H        4.69255107      -1.08018785       8.48893113
O        4.96094975      -4.70099059      -5.82469504
H        5.03471745      -4.89869210      -6.75834609
H        4.55403814      -3.83512575      -5.79415254
O        0.04494875       8.70340549       2.22126386
H        0.02013146       9.45352872       1.62718384
H       -0.83898199       8.33806115       2.18355724
O        3.30381915      -7.90304741      -2.74988110
H        3.78879699      -8.12487109      -1.95500841
H        3.02052029      -6.99892744      -2.61371699
O       -5.89535417      -0.79965854       7.02039332
H       -5.84267683       0.12189401       6.76702038
H       -4.99229674      -1.11350394       6.97327458
O        1.43677723      -8.10521302       4.17998720
H        0.59491746      -7.66623063       4.05833845
H        1.85477100      -7.62822257       4.89692037
O        7.35849548       5.56881153      -0.32011187
H        8.17204779       6.01398306      -0.55714938
H        7.62191984       4.91758996       0.33008035
O       -2.12196236      -7.46412541      -5.10995865
H       -2.89119396      -6.96632532      -4.83299357
H       -2.04771353      -7.28891810      -6.04805318
O        6.80260816      -6.11275422      -2.07261812
H        6.28096507      -5.44465529      -2.51732493
H        6.48728748      -6.10125794      -1.16891875
O        3.61340760      -8.64870462      -0.15246887
H        2.81268493      -8.13838432      -0.27349876
H        3.30659426      -9.53593707       0.03438935
O       -0.25559148       9.07954555      -2.34051067
H        0.18249885       8.24401798      -2.50238217
H       -0.39179662       9.45185536      -3.21175427
O       -1.71370215      -9.17885696       1.13531783
H       -1.03725050      -8.62978386       0.73887901
H       -1.94198639      -9.80924584       0.45214289
O        3.62708648      -5.04008192       7.13293846
H        2.87972402      -4.51878178       7.42607213
H        4.27565634      -4.39387170       6.85365128
O       -3.48285610      -2.11146220      -8.53635051
H       -3.27059999      -1.50820558      -7.82412818
H       -3.45652489      -1.57006949      -9.32529439
O       -9.11802121       2.56475234       0.54607603
H       -8.51066840       2.01118493       0.05524253
H       -9.31829303       3.28743625      -0.04877774
O       -7.15042474       4.39819034       4.42799118
H       -8.00650560       4.19492630       4.80487463
H       -7.26951097       4.28207653       3.48535239
O        3.59819364      -8.40899641       2.55690532
H        2.69643651      -8.43084963       2.87719951
H        3.51386838      -8.38944437       1.60362740
O       -8.04968297      -5.15289895      -0.87170847
H       -7.76998774      -4.76064681      -0.04458050
H       -8.19733010      -4.40705414      -1.45321314
O        7.03954074       5.83125714       3.07030734
H        6.48994188       5.85614491       3.85360392
H        6.60947171       6.42653141       2.45636842
O       -7.96879869      -2.54449982       4.82853045
H       -8.81102987      -2.77751653       4.43791340
H       -7.89203120      -1.60077062       4.68812470
O        3.52698681       7.07219087       5.57220793
H        3.14707738       6.26214349       5.91239008
H        3.34594838       7.04610816       4.63264600
O        7.50005153      -0.50864685      -6.09588859
H        8.04145037      -0.66131663      -6.87036329
H        6.91577389       0.20617638      -6.34863200
O       -2.16259001      -4.48444806      -8.30647769
H       -2.49817722      -3.64417281      -8.61880854
H       -2.16470827      -4.40413908      -7.35265495
O        6.03204127       7.52148984       1.19242063
H        6.50035362       6.95731477       0.57709804
H        5.12269139       7.22657371       1.14405625
O        5.93275983       7.54931279      -1.52723457
H        5.24506018       7.54566535      -0.86143600
H        6.45508671       6.77006695      -1.33701788
