391
Properties=species:S:1:pos:R:3 charge=0 spin=1 spin_multiplicity=1 metal=Lu geometry=droplet boundary=non-pbc droplet_radius=9.631 pbc="F F F"
Lu       0.00000000       0.00000000       0.00000000
O       -1.19306372      -1.78009151      -0.27105934
H       -1.28060194      -2.55880841       0.29039685
O        2.07385685      -0.04765150      -0.60203578
H        2.84003790      -0.42618205      -0.15596714
O       -1.25648193      -0.10853937       1.75358842
H       -2.00161800       0.44339253       2.01710203
O       -0.04146892      -0.35584427      -2.27192764
H        0.66775316      -0.67959060      -2.82728715
H       -0.77181788      -0.21338737      -2.87403085
O        0.97935050      -1.59036357       1.34224301
H        0.69455131      -1.88214860       2.20825847
H        1.76309238      -2.10880971       1.16005051
O       -2.05974891       0.75736264      -0.68835764
H       -2.70592742       1.24418210      -0.17679926
H       -2.46293595       0.65639131      -1.55060868
O        0.40003900       2.06178217      -0.93756231
H        0.48701732       2.27610929      -1.86639518
H        0.51686569       2.89785647      -0.48638260
O        1.12186733       1.18884520       1.61804227
H        1.16864192       1.00204911       2.55567290
H        1.64664248       1.98131375       1.50474406
O       -3.62241457      -2.99486396      -0.41590756
H       -3.41647889      -2.53258742       0.39657182
H       -3.67012365      -2.30581067      -1.07859998
O       -3.55665202      -0.81278158      -2.32911203
H       -3.72648043      -0.75378551      -3.26927670
H       -2.65810302      -1.13687443      -2.26742453
O        4.50269873      -0.95781484       0.21683064
H        4.20703933      -1.09487823       1.11684785
H        4.49438637      -1.83146855      -0.17418335
O       -0.65667412      -1.93732983       3.70993491
H       -1.32872244      -1.43265660       3.25179976
H       -0.01838710      -1.28354830       3.99522642
O       -1.74835068       3.95001838      -0.37676916
H       -1.41508487       3.09544004      -0.65037762
H       -2.33343053       4.21757564      -1.08551913
O        3.27669910      -0.47560670       2.93683860
H        3.34649350       0.46450034       2.77082859
H        2.63279215      -0.78468273       2.29958850
O        0.64572671       4.33623921       1.10846317
H       -0.24724016       4.15065453       0.81794579
H        0.80191119       3.71251353       1.81755027
O        2.91102669       6.73979244       2.15028139
H        3.79298581       6.69651345       1.78081303
H        2.49603024       7.47274062       1.69553228
O       -1.30050074      -3.81131006      -2.28153880
H       -1.32337876      -3.16371336      -1.57703404
H       -1.11549153      -3.30147229      -3.07025223
O        1.10722892      -0.03057791       4.51699330
H        1.37988965       0.80022409       4.90642364
H        1.88112703      -0.34060690       4.04667895
O       -1.98295416      -0.07020666      -4.41964500
H       -2.36423088       0.74029975      -4.08209609
H       -2.19647719      -0.06548214      -5.35271383
O        0.49379985      -2.74388788      -4.02495434
H       -0.01925644      -1.95257912      -4.18876990
H        0.81447262      -2.64079017      -3.12897907
O       -3.39656783       2.05232094      -3.41882509
H       -4.28636333       2.33277664      -3.63292886
H       -2.87463453       2.85332889      -3.46576918
O        1.69524441       3.50656549       3.77534662
H        2.50087986       3.51981342       3.25861859
H        1.74165221       4.29745423       4.31253668
O       -3.40673828      -3.10706726       3.01894489
H       -3.02116141      -2.55317808       2.34014514
H       -3.01825027      -2.79205187       3.83507859
O        1.81761122      -5.07158991       1.19972073
H        1.40389563      -4.39434981       0.66454123
H        1.96984627      -5.79669593       0.59368642
O       -2.27110205       3.55665435       3.61887904
H       -1.70815895       3.66389306       2.85218043
H       -3.05501316       4.06638588       3.41421108
O       -1.89252220      -5.25644996      -0.05455363
H       -2.54179617      -4.55617510       0.01094657
H       -1.36485380      -5.02378916      -0.81853455
O       -0.35526255       2.29587098       5.08989722
H       -1.08556018       2.69362859       4.61588659
H        0.42625735       2.61832407       4.64102921
O        3.99669877      -4.05789379      -0.08371397
H        3.42352308      -4.44474918       0.57813523
H        3.41200088      -3.83924029      -0.80935222
O        2.56378601       2.48239178      -4.55344375
H        2.83184872       1.59063556      -4.77513062
H        2.24521157       2.42036746      -3.65294658
O        4.23107763       4.01398488       0.70446408
H        4.94791131       3.98646039       0.07072619
H        3.70874055       3.23581671       0.50991303
O        5.84083888       0.43097316      -1.76187220
H        5.31096412       0.00156109      -1.09025486
H        5.60235510       1.35596439      -1.70064669
O        3.09761849       4.98302681      -1.65678616
H        3.32364230       4.64147458      -0.79163464
H        2.35561855       5.56653735      -1.49809347
O       -3.67532885       0.84408589       3.65551243
H       -3.44724929       0.53749189       4.53312947
H       -3.26419421       1.70585056       3.58797125
O        6.29041949       0.96303614       0.93277078
H        5.58063643       0.32235437       0.88842308
H        7.04143848       0.46701087       1.25859472
O        4.83320089      -1.07080271      -3.79356052
H        5.28536218      -0.44873172      -3.22363975
H        4.10385011      -0.57232419      -4.16206892
O       -0.31519203       6.25310266      -0.57741590
H       -1.00232695       5.59096918      -0.65262691
H        0.19648847       5.98244136       0.18492088
O       -3.77741600      -2.69228623      -4.40527318
H       -3.61870466      -3.41051322      -5.01780280
H       -4.63676398      -2.35110704      -4.65296181
O        2.88074355       0.04513306      -5.84051356
H        3.74717969      -0.21266881      -6.15524909
H        2.48341981      -0.77077768      -5.53612015
O       -6.24841145      -1.00803497      -1.99056388
H       -6.60359979      -0.22944821      -2.41937122
H       -5.29979203      -0.92284738      -2.08593744
O        1.70413064      -3.13861415       5.49861346
H        0.92997113      -2.74148999       5.09961309
H        1.40786044      -4.00042653       5.79141927
O        3.03387237      -4.72032461      -3.39687091
H        3.66602550      -5.04694527      -2.75661065
H        2.18091523      -4.96713217      -3.03940484
O       -2.52489242      -2.57975829       5.57954612
H       -1.83963145      -2.01478338       5.22254107
H       -2.05382452      -3.33426992       5.93315475
O        0.69439566      -6.02597279      -2.92726283
H        0.85616335      -6.08829852      -3.86863341
H        0.17199707      -5.23035112      -2.82568664
O       -3.21568458       5.81480691       1.27897052
H       -4.10316941       5.88644694       0.92758721
H       -2.76285754       5.23135838       0.67006385
O       -2.75522091      -5.69388974       2.48765015
H       -2.98152928      -4.77064707       2.60007502
H       -2.71019730      -5.81619300       1.53936400
O        2.64615709      -2.66031775      -5.68590547
H        2.14793443      -2.74555425      -4.87304586
H        2.06606892      -3.01245309      -6.36098344
O        3.56253852      -4.30910950       3.89403850
H        2.86572505      -3.89830838       4.40582485
H        3.16302273      -4.48458262       3.04208301
O       -6.52464323       0.57942529       2.19473307
H       -6.30541633      -0.23237832       2.65205823
H       -6.79487083       1.18049716       2.88893872
O        0.57604606      -5.93369784       3.57760308
H        0.93457432      -5.70816776       2.71921768
H       -0.08615710      -5.26306109       3.74483096
O        5.97056753      -3.17489706      -1.73389325
H        5.46359881      -2.60443886      -2.31164059
H        5.33274463      -3.50189528      -1.09947545
O        0.53463262       5.14839983      -3.79366066
H        0.52587343       5.65947158      -2.98436418
H        1.45521081       5.12879471      -4.05516262
O       -4.39991199       2.90584426       1.13879146
H       -5.30348458       2.92284993       0.82335649
H       -4.11752076       3.81990213       1.10740290
O       -0.36595840       6.26043551       3.14738362
H       -1.21050075       5.86448180       3.36232716
H        0.02082457       5.66642068       2.50412850
O       -2.89098014       0.09016984       6.43262028
H       -2.23959522      -0.02401005       7.12464086
H       -3.48847554      -0.64975273       6.54099777
O       -5.26975778      -4.47876397       1.54243987
H       -4.64283287      -3.84867104       1.89765798
H       -5.08607049      -5.29159964       2.01338466
O       -5.82965576      -0.28155602      -5.06530718
H       -4.93234806      -0.35978293      -5.38926903
H       -5.78374209      -0.58001065      -4.15698532
O        3.51703432       1.78849473       5.96266597
H        4.34633718       2.20727992       5.73221516
H        2.88511255       2.50690029       5.99095327
O       -0.77804348      -5.11287728      -5.02458164
H       -0.26723548      -5.29421741      -5.81351940
H       -0.44719688      -4.27051328      -4.71282010
O       -6.73440816      -2.73849731       0.05089606
H       -6.22104420      -2.21116950      -0.56116167
H       -6.09442765      -3.31891604       0.46292868
O       -5.87887058      -2.18423224       3.67874501
H       -6.34564376      -2.91988577       4.07518989
H       -5.04095917      -2.55374485       3.40018311
O        6.12628094       3.04228815       2.67867565
H        6.53594977       2.35645358       2.15138612
H        5.35159831       3.29904135       2.17849922
O        0.61799073      -0.22474556       7.29243455
H        0.69511978      -0.34356578       6.34577479
H        0.85215308       0.69170202       7.43914404
O       -3.08395956      -0.95545350      -6.74397653
H       -2.32746711      -1.42472358      -7.09573866
H       -3.36299069      -1.47889002      -5.99271913
O        6.31438674       3.85788425      -1.03733392
H        6.57040462       3.21257433      -1.69631936
H        6.42835982       4.70301956      -1.47206173
O        6.08983330       0.62410717       4.33433935
H        6.14271419       1.42801054       3.81744978
H        5.48306172       0.06573129       3.84825658
O        1.44823017       1.98326588      -7.10144409
H        2.10558618       1.31243208      -6.91679054
H        1.95679923       2.77052497      -7.29589841
O        2.03136972      -7.20677135      -0.65441425
H        1.54398414      -6.89198944      -1.41572856
H        1.86800256      -8.14978441      -0.63800171
O       -0.91174850      -7.38133114       1.33158034
H       -0.44776192      -6.84221604       1.97212948
H       -1.14534416      -6.77316077       0.63030029
O       -7.29925690       2.17448101       0.13216891
H       -8.24557864       2.22919661       0.26525990
H       -6.98217055       1.65801471       0.87308094
O        6.21712390      -3.33460368       3.00244122
H        5.37336983      -3.68805900       3.28418621
H        6.57432596      -4.00324510       2.41801228
O       -6.19089355       2.82038041      -3.75540022
H       -5.79279301       3.52706629      -4.26367463
H       -6.56456488       3.25656418      -2.98966836
O        3.61924886       4.98396766      -4.76633924
H        3.66287408       4.03295913      -4.66678298
H        4.14361714       5.32540069      -4.04198211
O        5.05450035      -3.58107134      -4.81728067
H        4.35635479      -4.16998959      -4.53092439
H        4.94780261      -2.80030872      -4.27390495
O       -2.45276407       7.19791839      -1.96900193
H       -2.70222936       7.78916489      -1.25877204
H       -1.52407200       7.02108172      -1.81902973
O        1.58961688       5.92769276       5.01042909
H        2.24421303       6.59971994       4.82038911
H        0.90451489       6.06839722       4.35692365
O        5.00334669      -6.09050801       1.41746823
H        4.94441259      -5.60886797       2.24256306
H        5.10996351      -5.41210342       0.75066099
O       -5.74178253       2.88908211       4.88406321
H       -5.15077527       2.22230517       4.53427645
H       -5.40008679       3.07799785       5.75801213
O        0.36416786       2.45481111       7.70820934
H        0.45979943       3.39101660       7.88315421
H        0.10923781       2.40766523       6.78678665
O       -5.37611793       5.83078329      -1.75659162
H       -6.12525277       5.30391243      -2.03486474
H       -4.62079610       5.25452532      -1.87341425
O       -2.95944484       4.53886486       6.06015945
H       -2.31861527       5.24443434       6.14814246
H       -2.64103334       4.01583752       5.32443643
O       -0.70012654       0.63348622      -8.08177986
H       -1.29059410       0.47320243      -7.34564875
H        0.06337955       1.05680874      -7.68923897
O        7.96274549      -0.98694769       1.82677080
H        7.47478106      -1.72165516       2.19869483
H        8.81068350      -1.01302325       2.27011382
O        7.26613533       2.33642310      -3.08693694
H        8.00718188       2.35392900      -3.69255678
H        7.13109848       1.40747479      -2.89971538
O       -1.36174465      -4.86642148       6.48323783
H       -1.18641099      -4.36415506       7.27898804
H       -0.58746713      -5.41814223       6.37219562
O       -2.46001885       5.56442789      -5.53992079
H       -1.68039506       5.52224002      -4.98617105
H       -2.55007914       6.49226334      -5.75727386
O        0.49305164      -4.17262083      -7.23786770
H        0.21333046      -4.90901246      -7.78166478
H        0.40725444      -3.40779742      -7.80700373
O        5.44295376       5.73037779      -2.81405415
H        5.79911093       6.59859346      -2.62541306
H        4.73675683       5.61726302      -2.17787588
O       -3.20226821      -4.58713914      -6.29582177
H       -2.36958970      -4.82946693      -5.89066060
H       -3.59724162      -5.42120525      -6.54991148
O       -4.90273965       5.42549591       4.37316190
H       -5.10337960       4.49836021       4.24511951
H       -4.21507002       5.43249681       5.03896465
O        5.41906413      -1.34179114      -6.45014051
H        5.62802369      -0.43404832      -6.67052816
H        5.39612216      -1.35727456      -5.49334076
O        8.12888161      -0.90341903      -2.45140168
H        8.04642264      -1.02198587      -3.39764386
H        7.35243472      -0.40132501      -2.20388674
O        1.80826677      -6.20984315      -5.57918400
H        1.54904747      -5.65727440      -6.31654752
H        2.41925741      -5.66989277      -5.07781001
O       -0.80298459      -8.21407481      -2.32025273
H       -0.44551380      -8.49914844      -1.47931307
H       -0.31435104      -7.41854672      -2.53144968
O        1.15613304       8.53048347      -0.36030000
H        0.63695700       7.74237721      -0.52022687
H        0.78840658       9.18476050      -0.95437967
O       -5.84828704       6.36218713       0.86887336
H       -6.02604305       7.28309784       1.06007506
H       -5.78714734       6.32270520      -0.08555577
O        6.06910510       3.19648983       5.39367436
H        6.77627579       2.56152152       5.50750189
H        6.03087135       3.34634586       4.44905105
O       -4.77590659      -2.01904716       6.99973561
H       -4.09652371      -2.52090747       6.54939468
H       -5.53345890      -2.60384391       7.01868564
O        5.85755740       6.38292753       0.97222968
H        5.54353848       6.86281515       0.20585390
H        5.26631600       5.63368849       1.04507410
O        3.88371514       4.44799723       6.42139357
H        3.25066023       4.73215377       5.76205422
H        4.62958104       4.12628644       5.91501618
O       -0.50601778      -2.94787299       8.21397199
H       -1.29826542      -2.67754007       8.67818707
H       -0.10749788      -2.12807026       7.92184667
O       -7.50293933       4.13525505      -1.74193851
H       -7.38168909       3.44225866      -1.09287286
H       -8.34072331       3.93100368      -2.15742763
O        1.09032646      -6.01968367       6.24715820
H        0.97516053      -6.02762883       5.29694479
H        2.03482433      -6.10781793       6.37517367
O       -7.42532472      -3.27416242      -3.26890432
H       -7.69014392      -3.82547017      -2.53258754
H       -7.03707128      -2.49987532      -2.86150944
O       -5.87674848      -5.47302486      -3.67549457
H       -6.10834484      -5.87544683      -4.51254386
H       -6.32952908      -4.62970476      -3.68121997
O        6.14248147       3.99982236      -5.01783002
H        6.03882822       4.66047613      -4.33297644
H        6.51217593       3.24143738      -4.56571270
O       -1.98791006      -7.58448622       4.28633670
H       -2.25613917      -6.92193958       3.64969164
H       -1.40203738      -7.11982097       4.88389109
O       -5.01660148      -7.28369445      -1.83700719
H       -5.38305593      -6.58127628      -2.37417726
H       -4.36606012      -7.70239753      -2.40066978
O       -3.17809610       8.48656700       0.31643072
H       -2.62153192       9.00630325       0.89638105
H       -3.09897209       7.59156049       0.64648310
O        0.19671156      -2.00099574      -8.84865230
H        0.39883832      -1.95987780      -9.78336399
H       -0.06169657      -1.10827724      -8.61950003
O       -2.12552663       3.85391372      -7.94879739
H       -2.95684243       3.86481109      -8.42316765
H       -2.28065935       4.40275373      -7.18007097
O        7.92070693       4.34486759       1.10332226
H        7.27399882       4.09802102       1.76443286
H        7.44458501       4.30187494       0.27405066
O       -1.72772240       8.55437148       2.61647870
H       -2.38920110       8.55445131       3.30834412
H       -1.22512898       7.75340128       2.76506687
O       -1.93768904      -0.45615174       8.93827071
H       -1.85299113      -0.61775627       9.87792069
H       -1.04225056      -0.50850727       8.60408413
O       -5.42596161      -6.90030587       2.77340747
H       -5.77233505      -7.56190046       3.37219782
H       -4.48479937      -6.88828259       2.94747906
O       -5.19750264      -2.89734155      -7.04550424
H       -4.55440068      -3.53437330      -6.73430937
H       -4.67281552      -2.16451463      -7.36783943
O        5.43526620      -0.50418494       7.45805909
H        6.20101614      -0.00185315       7.73648619
H        4.88674385       0.13033108       6.99681676
O        2.47985449       7.75291123      -4.43762435
H        3.01995172       8.02312282      -3.69498547
H        2.84441438       6.90924050      -4.70510824
O       -3.13736992      -7.95523277      -3.69212953
H       -3.22041806      -7.03181541      -3.93011110
H       -2.31966344      -8.00281032      -3.19682726
O        5.88403054       1.25448020      -7.14704159
H        6.76666405       1.11446120      -7.48994771
H        5.96096235       2.03451444      -6.59762378
O       -9.27340072       0.23032958       1.25525102
H       -9.78940971       0.82010448       1.80491649
H       -8.37308574       0.34509656       1.55937817
O       -4.74909146       0.66299494      -8.16043127
H       -4.13237543       0.10058507      -7.69182875
H       -5.59133689       0.50241941      -7.73490809
O       -5.13871056       6.27543977      -4.89328674
H       -5.28825504       5.95092640      -4.00527809
H       -4.30890927       5.87809123      -5.15743785
O       -8.72953383      -0.90904832      -3.59088862
H       -7.90858480      -0.71382037      -4.04272995
H       -8.76678612      -1.86512422      -3.56326658
O       -4.77131642       1.06667840       8.13824824
H       -4.09644332       0.93867601       7.47161977
H       -5.56361394       0.69290511       7.75251517
O       -1.34230133       6.64517238       6.64898745
H       -1.35163377       7.60155426       6.68743820
H       -0.50924221       6.42997242       6.22954338
O        3.91561970      -3.49220272      -7.94307914
H        4.44484239      -2.85598738      -7.46205395
H        3.48896261      -2.97936683      -8.62951554
O       -8.31254886      -4.42353631       1.48913833
H       -7.92410421      -3.75112196       0.92949422
H       -9.23454029      -4.17558427       1.55757402
O        3.71229322       1.99271940      -8.60887616
H        3.26905085       1.15516626      -8.74405298
H        4.47699680       1.77620201      -8.07541529
O        2.64418418       4.43727178      -8.07811479
H        3.17986306       5.22757002      -8.00949493
H        3.24446908       3.76830086      -8.40730743
O        1.49556378      -8.34544051       4.53708038
H        0.87100204      -9.01067396       4.24791099
H        1.23874364      -7.55360708       4.06456047
O        4.07633952       8.51568971      -1.90311680
H        3.98902760       9.25325295      -2.50694537
H        3.23050517       8.46896135      -1.45745712
