391
Properties=species:S:1:pos:R:3 charge=0 spin=4 spin_multiplicity=4 metal=Nd geometry=droplet boundary=non-pbc droplet_radius=9.7193 pbc="F F F"
Nd       0.00000000       0.00000000       0.00000000
O        2.21601179      -0.03774750      -0.78125980
H        3.02064478       0.30942933      -0.37960074
O       -1.68945197      -1.10349314      -1.20438986
H       -2.63377541      -1.17423052      -1.02398626
O       -0.52655982       1.14124063       1.98564966
H       -0.05875104       1.85613083       2.43217284
O        0.13012315       0.49097069      -2.43764553
H        0.73554341       0.11863204      -3.07878676
H       -0.41406271       1.09435434      -2.94363147
O        0.69912146      -2.28823589      -0.68942419
H        0.15492200      -3.07319766      -0.75198466
H        1.57231920      -2.58009087      -0.95129859
O       -2.02942514       1.41932632      -0.25893320
H       -2.45981511       1.95355712       0.40859490
H       -2.55405864       1.55301370      -1.04831221
O       -1.46042683      -1.35988026       1.48928814
H       -1.60229422      -1.25052887       2.42957946
H       -2.00581903      -2.10917520       1.24983821
O        1.04580453       2.25851286       0.07424672
H        1.97178764       2.47898552      -0.02664393
H        0.61196466       3.10086963       0.21007700
O        1.61480284      -0.52069372       1.82246806
H        1.46300838      -0.48736279       2.76696758
H        2.52650442      -0.79905696       1.73560047
O       -1.60400482       2.44767617       4.11419945
H       -2.54352370       2.61500725       4.03979231
H       -1.22604902       3.29752722       4.34032872
O       -3.35893372      -0.64761035       3.30222558
H       -3.79656877      -1.49570525       3.22845258
H       -2.70381566      -0.77449974       3.98848446
O       -4.21637591      -0.44794341      -0.44064254
H       -5.08681401      -0.07530444      -0.30025181
H       -3.61437220       0.21281871      -0.09827315
O       -3.64410667       3.58176220      -0.59815969
H       -4.04976992       3.64725269      -1.46267121
H       -4.21173588       4.09914458      -0.02689409
O        2.04352888      -2.87575090       3.11408322
H        1.99747982      -2.31389997       3.88766894
H        1.52094964      -2.41942997       2.45460314
O       -0.56620774      -3.59811377       2.85743895
H       -0.49664583      -2.97960801       2.13022261
H       -1.34927948      -3.32171364       3.33349929
O       -1.76186500       3.87254417      -3.38597025
H       -1.49253201       4.16135605      -4.25791020
H       -1.51647444       4.59464554      -2.80753709
O       -2.16652343      -4.22271296      -0.65721021
H       -1.96262932      -3.35040729      -0.99446657
H       -2.47743069      -4.70869041      -1.42101283
O       -0.35277436       1.52403196      -4.90705729
H       -0.90312846       1.22902296      -5.63253085
H       -0.85262958       2.23083219      -4.49863345
O       -0.30626297      -1.18839757       4.72052134
H       -1.09225199      -1.41934967       5.21561146
H       -0.18953154      -1.91164388       4.10446908
O        1.15818207       3.52414979       3.30251252
H        0.47685508       4.13277783       3.58816490
H        1.49375889       3.90357186       2.49031862
O       -3.33202690      -2.24135587      -3.04972722
H       -3.89595651      -2.70254236      -2.42882284
H       -2.60296971      -2.84216341      -3.20379786
O        6.28966011      -3.57633731      -3.45149138
H        7.23135268      -3.61840652      -3.28512691
H        5.98644647      -2.83431269      -2.92833482
O       -0.61667667      -3.76730740      -3.52027003
H       -0.57873398      -2.83217973      -3.31945062
H       -0.77692530      -3.80395159      -4.46324904
O       -4.01894560       1.01070966      -3.24852064
H       -4.75761626       0.82808400      -2.66779233
H       -3.60136901       0.15958283      -3.38059922
O        3.39934760      -3.91485010      -1.66675583
H        3.38222191      -4.22553943      -0.76154277
H        3.89647557      -3.09766494      -1.63064432
O        3.43176909       4.27318062      -0.18881550
H        4.05683962       4.93707398      -0.47995856
H        2.69317135       4.77425422       0.15706087
O        4.01136104      -1.04472436       3.82858020
H        3.66202381      -1.64216229       3.16732135
H        4.54867964      -1.59986964       4.39367692
O        5.32746429      -1.00453057      -1.56985719
H        5.85152835      -0.76975482      -0.80404452
H        4.45668843      -0.65470165      -1.38117497
O       -4.16827439       6.78058488      -1.30738266
H       -4.09535492       7.23268630      -0.46683587
H       -4.04143749       5.85604067      -1.09439854
O        1.29309094       3.63269945      -4.41405745
H        0.42401754       3.90921929      -4.12340292
H        1.89153664       4.26556547      -4.01710004
O        1.31589712       5.75035406       0.83525530
H        0.76730837       4.97554739       0.71295712
H        0.70378923       6.48550036       0.80185335
O       -0.25690119       1.25632114       6.15488145
H       -0.14762412       0.41871954       5.70464383
H       -0.38616342       1.89204363       5.45104906
O        2.31655146      -3.85813047      -4.16129695
H        2.84370259      -3.67675066      -3.38319356
H        1.41264005      -3.84781127      -3.84654384
O        3.37129217      -5.06609117       0.79743914
H        3.83076837      -5.66532210       1.38568717
H        2.71225175      -4.64574635       1.34989530
O       -5.48368371      -2.59743660       1.10277859
H       -6.29763783      -2.81580104       0.64887606
H       -5.11223912      -1.87565172       0.59554359
O       -0.89793392       6.11242279      -1.35829195
H       -1.84691705       6.17277241      -1.46793127
H       -0.70397022       6.69298522      -0.62238626
O        1.71363835      -6.10272253      -1.17685456
H        2.25997199      -5.79962056      -0.45167831
H        2.28487738      -6.68107289      -1.68225408
O       -4.53894438       0.68052193       6.37874924
H       -3.74435555       0.26250980       6.71060206
H       -5.02202969      -0.02706729       5.95192618
O        0.55916702      -3.69016030       5.35628398
H       -0.17579334      -3.27688775       5.80935230
H        0.25028714      -3.81094563       4.45837755
O        4.30529076       2.05899374      -4.45667586
H        3.45671320       2.16222499      -4.88736284
H        4.91310298       1.85944851      -5.16869963
O       -6.23666784      -0.28106281      -2.34772546
H       -7.11825684      -0.65386263      -2.35500360
H       -5.76230452      -0.77355953      -3.01754503
O       -6.92801850       3.91192535       0.39580969
H       -6.23889729       4.42228691       0.82110356
H       -6.84970607       3.03775332       0.77780741
O       -1.59828035      -6.59249982       0.55096487
H       -1.40015456      -6.41554148       1.47056465
H       -1.68550646      -5.72621287       0.15325848
O        4.67512498      -0.93356838      -4.91244761
H        3.81954394      -1.32542357      -4.73734067
H        4.53932208       0.00552078      -4.78634856
O       -4.84084668       3.59797516      -3.41862604
H       -3.98944341       3.99167276      -3.60927366
H       -4.64768124       2.67421491      -3.25866991
O        3.14606475       5.40560229      -3.10539437
H        3.17308022       5.07707845      -2.20674311
H        3.36021576       6.33528878      -3.02758551
O       -6.96999661       0.50793848       0.15038080
H       -7.54902015       0.48690360       0.91230016
H       -7.15038310      -0.31120170      -0.31081538
O        2.52576981       1.50278629       6.39206825
H        1.57630140       1.40667736       6.31787492
H        2.76230311       0.97007393       7.15134513
O        6.31431908       3.26431413      -0.26576749
H        5.41089555       3.57630423      -0.21361448
H        6.34109434       2.73926828      -1.06566860
O        6.33391935       1.15531632      -2.88154217
H        6.00782050       0.36476162      -2.45152515
H        5.58266169       1.48904314      -3.37191976
O       -0.89419063       4.90131634       5.04918991
H       -0.87102981       5.85522494       4.97333610
H       -0.16242126       4.68879863       5.62848400
O        1.91420865      -5.60669271       3.85547482
H        1.89670919      -4.68194120       3.60897887
H        1.02688852      -5.91906428       3.67850354
O       -1.14001246      -6.23208413       3.21985914
H       -0.93145926      -5.30440465       3.10964034
H       -0.82229636      -6.44693716       4.09685771
O       -4.33698500      -5.66086937       0.49446406
H       -3.60048508      -5.22567698       0.06503736
H       -4.93422536      -4.94956493       0.72594143
O       -3.50038012      -5.70630192      -2.50604546
H       -4.30826294      -5.21209379      -2.36706523
H       -3.36694802      -5.68650054      -3.45369287
O       -1.40187386       4.23167478       1.41985653
H       -1.01321812       3.36513252       1.53936830
H       -2.17703291       4.07473574       0.88066230
O       -3.68197252       4.51133043       4.27199207
H       -2.76667974       4.62885345       4.52627403
H       -4.07327544       4.02873278       5.00014959
O       -0.07393955      -6.47691407      -3.21410055
H       -0.16695491      -5.53492394      -3.35634884
H        0.74900013      -6.70482763      -3.64660203
O       -3.66588441       0.73778613      -6.19219180
H       -4.52642680       0.87431845      -6.58849669
H       -3.81064753       0.86455713      -5.25453269
O       -1.23281046      -0.02856705      -7.13817147
H       -1.42509433      -0.58780906      -7.89083815
H       -2.09009458       0.27466832      -6.83926664
O        0.87615855      -2.27490849      -6.82416825
H        1.27460667      -2.20176092      -5.95691951
H        0.22581985      -1.57301682      -6.84945649
O        5.57253730      -3.42244256       3.18355627
H        5.92487165      -2.54190144       3.31293816
H        4.72667891      -3.28233268       2.75796885
O        7.25572237       0.07022484       0.82186832
H        7.90957719       0.73955000       1.02363436
H        7.71354911      -0.54878235       0.25313585
O       -6.37720492       1.59230155       3.33267397
H       -6.17113251       2.38213989       2.83275258
H       -7.22228673       1.30377219       2.98797210
O        1.32880393       0.88352451      -7.20633404
H        0.88871342       0.11072415      -7.56035634
H        0.89757897       1.04162802      -6.36652445
O        5.99588271      -4.35547105       0.44684099
H        5.82656829      -3.98691032       1.31386317
H        6.94915739      -4.42740864       0.39863088
O       -5.68201225      -2.05599202      -4.40660986
H       -4.79778972      -2.05161793      -4.04005397
H       -5.65360729      -2.72164513      -5.09387323
O        1.37977592       3.96283312       6.20967472
H        1.53185805       3.81080441       5.27694210
H        2.22636264       4.25667143       6.54609976
O        4.33858508       5.38624261       2.95255517
H        4.79557378       5.88002167       2.27169145
H        3.88648513       6.05274724       3.46986460
O       -4.54248231       5.71941437       1.91316507
H       -4.50469499       6.65232846       2.12405668
H       -4.26094702       5.28034062       2.71577578
O       -1.13461153      -4.02917014      -6.29685676
H       -1.55584177      -4.12154443      -7.15141157
H       -0.42038031      -3.40985800      -6.44705023
O       -6.06190679      -3.04862380       3.73461920
H       -5.22498553      -3.24424362       4.15595936
H       -5.83315560      -2.85256209       2.82606841
O       -1.81867335      -0.78442516       7.62779692
H       -1.34998743      -0.08731072       7.16888866
H       -2.36963213      -0.32591358       8.26218119
O       -3.85789150      -6.16897870       3.13296049
H       -3.95334614      -6.09862742       2.18313369
H       -2.91939372      -6.29702543       3.27101043
O       -0.56354090       7.90210403       0.66250586
H       -1.24256138       8.44907313       1.05745880
H       -0.16224134       8.46088402      -0.00304311
O       -2.45808694      -4.49360135       6.17368712
H       -3.15730617      -4.67595292       5.54593541
H       -1.65088737      -4.58823548       5.66801423
O        4.51153835       1.73659298       1.70450242
H        4.24183720       0.94745638       1.23465505
H        5.10552116       2.18367310       1.10156327
O       -0.56462667       2.90525071      -7.53932491
H        0.35940897       2.94625118      -7.29293307
H       -0.76158923       1.96930181      -7.57723602
O        4.06909235      -6.74265829      -2.37715510
H        4.97517771      -6.87257986      -2.65708642
H        4.03174196      -5.82641496      -2.10268298
O       -2.89833831      -5.75857747      -5.15807750
H       -3.60256247      -5.51208424      -5.75769509
H       -2.24684639      -5.06397164      -5.25458061
O        3.27527423       7.62666997      -0.51307791
H        4.12759379       7.35411487      -0.17322951
H        2.64086676       7.12999949       0.00371744
O        5.34673227       2.78349667       4.85209164
H        5.92384498       3.19358693       4.20788769
H        5.93266332       2.26499267       5.40351728
O        1.87592698       4.02766785      -7.04135684
H        1.69054426       3.91619443      -6.10891984
H        2.55873711       4.69779644      -7.07185008
O        6.81938568      -1.47337107       4.61355258
H        6.43566933      -0.72940791       4.14931943
H        7.02628131      -1.13244640       5.48372291
O       -2.03215604       2.38437429       7.87982984
H       -1.41447507       1.97623459       7.27309758
H       -2.33502548       1.66505620       8.43398092
O        4.52221729      -5.27962575       4.87269647
H        4.90251819      -4.58556913       4.33428354
H        3.62743108      -5.37374694       4.54599986
O       -7.44258325       2.36487643      -3.57888461
H       -7.15173393       1.49229866      -3.31384399
H       -6.64655285       2.89636199      -3.56936977
O        4.62200403      -6.87917743       2.39332073
H        4.67476109      -6.37863197       3.20750915
H        4.91856213      -7.75744955       2.63190658
O        7.21816538       4.12093488       2.50213893
H        6.61550601       4.74616327       2.90478392
H        6.90609979       4.03269968       1.60154942
O       -3.49669160      -7.89780786      -0.89493089
H       -3.59169360      -7.08050821      -1.38404002
H       -2.72098575      -7.76294036      -0.35057527
O       -3.18225574       6.47323342      -4.98009045
H       -4.10980788       6.47465501      -5.21647327
H       -2.75086068       6.01894171      -5.70379562
O        7.32196538      -0.30648618      -4.95219330
H        6.49771323      -0.78655365      -5.03203974
H        7.20600972       0.24207774      -4.17639452
O        8.70524977       0.99478610      -1.28844225
H        7.85643052       1.21405556      -1.67270600
H        8.82248535       1.63344957      -0.58516661
O        0.14572095      -8.60499527       2.14429465
H        0.51645850      -8.47988665       1.27071962
H       -0.26401158      -7.76561982       2.35357905
O       -0.21815388      -6.58062333      -5.96908657
H        0.66131671      -6.55304035      -5.59225436
H       -0.54184630      -5.68339067      -5.88890802
O        2.10830225      -7.24047690      -4.72384897
H        2.70555477      -7.09683218      -3.98975942
H        1.84618774      -8.15762502      -4.64405450
O       -8.60563385       0.36746870       2.36712261
H       -8.08444912      -0.40191981       2.59655590
H       -9.31004985       0.38208051       3.01505504
O        5.92630853       1.40611314      -6.54102408
H        6.55622106       0.93849971      -5.99259019
H        6.43859101       1.70742385      -7.29136424
O       -2.05064659       5.13209057      -7.05835813
H       -2.88008196       4.96791967      -7.50704144
H       -1.53396929       4.34111582      -7.21209605
O        8.74152381      -2.05011519      -0.42631849
H        9.38292367      -1.64263055       0.15574193
H        8.92856604      -1.67749893      -1.28794728
O       -5.88400244      -2.49837263       6.39910683
H       -4.97851393      -2.28459127       6.17411814
H       -6.35018302      -2.47793342       5.56334984
O        1.87920379      -5.90729659       6.55858635
H        1.45086471      -5.18277278       6.10271059
H        1.84298522      -6.63578572       5.93872858
O       -8.15136936      -2.14857632      -3.26989907
H       -7.28081040      -2.18810327      -3.66587453
H       -8.62242994      -1.49784650      -3.79036470
O       -5.86422018       3.47977923      -5.93599300
H       -5.47585705       3.52760767      -5.06242654
H       -6.76384518       3.19071965      -5.78318186
O        0.24493317       8.60025107      -2.80783357
H        0.00025242       7.78170308      -2.37615968
H       -0.02525408       8.48145614      -3.71839299
O       -7.28934182      -4.79325300      -2.40988404
H       -7.57019422      -3.91995587      -2.68320782
H       -6.73901926      -4.63899492      -1.64204202
O        5.89312657      -0.28276920       6.87693749
H        5.35835533      -0.09267904       7.64772753
H        5.26108380      -0.52515837       6.20017958
O       -4.33866030      -2.14211553      -7.71149918
H       -3.66492450      -2.34196653      -8.36140032
H       -4.06446703      -1.30801546      -7.33028144
O        2.19798442       6.54727330       5.97936083
H        1.87517411       7.36029650       5.59074970
H        1.51675826       5.90269785       5.78782690
O        2.74450764      -3.03720260       8.24410079
H        2.30191383      -2.33630900       7.76546659
H        2.50213549      -3.83686542       7.77716722
O        6.55072711       6.16860831      -1.89272137
H        6.74742869       6.34023857      -2.81363580
H        6.55675978       5.21420437      -1.81986141
O        5.74505384       7.16617973       0.52929342
H        6.03652948       8.07779187       0.51389534
H        6.03466808       6.80742218      -0.30954414
O       -7.00072388      -5.89278124       0.99358443
H       -6.21478504      -6.41724916       0.84040030
H       -7.16289798      -5.97235931       1.93358376
O        8.04394355      -4.06201112       2.24350712
H        8.59001528      -4.52223639       2.88086903
H        7.21742441      -3.90927550       2.70151343
O        8.79729161      -0.93017607       2.82715192
H        8.66227901       0.00564607       2.97628395
H        8.04515173      -1.35058830       3.24401041
O        6.51640349      -6.60445214      -1.19222214
H        6.18900478      -5.90086854      -0.63185437
H        6.76022816      -7.30204384      -0.58382490
O        3.50956112       8.10010097      -3.18252748
H        2.63856186       8.38475667      -3.45922817
H        3.48170808       8.13723545      -2.22645370
O        0.60801806      -9.02846942      -2.56379360
H        0.90714520      -9.01120730      -1.65469690
H        0.09212127      -8.22818670      -2.66192574
O        1.36750448      -8.18244236       4.53745319
H        0.92988374      -8.46176603       3.73327771
H        2.30108052      -8.27325625       4.34661175
O        8.59410569       1.94468722       3.56747673
H        9.21094249       2.25925052       4.22838075
H        8.09149577       2.72069944       3.31964585
O       -7.24317210      -0.69902569      -6.17290485
H       -7.78447282      -0.07236078      -5.69278356
H       -6.69272640      -1.10375777      -5.50250697
O        9.16854271       2.45601453       0.95846032
H        8.50841244       2.99133636       1.39879020
H        9.99153255       2.68777336       1.38881762
O       -4.68386005      -4.72466381      -6.93050081
H       -4.57337361      -3.80630166      -7.17674367
H       -4.79013797      -5.18520015      -7.76287280
O       -3.46993070       7.72711136       4.54359460
H       -3.53274172       6.77625970       4.45321901
H       -4.20774212       7.96403174       5.10549750
O        4.69911223      -8.40029509      -0.25905516
H        4.63194249      -7.62981539      -0.82304195
H        4.75282662      -8.04448833       0.62793309
O        9.11733145      -1.11639348      -2.95324001
H        8.87037136      -0.97200860      -3.86669256
H        9.13198496      -0.24057628      -2.56728490
O       -2.05180737      -3.19006887       8.90661266
H       -2.07953798      -2.28838709       8.58656138
H       -2.20294390      -3.72586548       8.12795254
O        2.16006710      -5.33693909      -7.79931591
H        1.49089901      -5.75901056      -7.26051949
H        1.85618390      -4.43443059      -7.89609013
O        6.29897339       5.78743360      -4.57476851
H        5.44008160       5.71639486      -4.15824692
H        6.69747796       4.92590917      -4.45147373
O        8.44635915      -4.72764638      -0.80328604
H        9.35470024      -5.02808347      -0.83304944
H        8.51084217      -3.77900283      -0.69306263
O       -0.70669315       7.94284470      -5.55664913
H       -1.50123568       7.46579418      -5.31715632
H       -0.16434566       7.29513414      -6.00671809
